# HZ S RI R 50
90000000 -0.000698354500217292 0.005425182125579592
90029762 -0.0007011017373822555 0.005467153611974384
90059524 -0.0009063771727379529 0.005481249605146059
90089286 -0.0007379570566701637 0.005510934096190283
90119048 -0.000956870232832186 0.005547758498711422
90148810 -0.0007917420437568808 0.005577321324652478
90178572 -0.0008828135310721256 0.0056248598960210415
90208334 -0.0008404367009102496 0.005654035967351186
90238096 -0.0010673166591786936 0.005669714228332504
90267858 -0.00093362764303016 0.005711872549777024
90297620 -0.0009252345584967414 0.005693145463725615
90327382 -0.0008450721009196032 0.005652050573919009
90357144 -0.0008706355018630354 0.0056030714400204995
90386906 -0.0007913017030701939 0.005560317634782744
90416668 -0.0009683328273056296 0.005505053128748403
90446430 -0.0007892313584300182 0.005470522010771831
90476192 -0.000715360257607675 0.005431028315428511
90505954 -0.0006907390191871898 0.005387311056436758
90535716 -0.0006827387995648614 0.005340263127940895
90565478 -0.0006378047122283532 0.005324265595539616
90595240 -0.0006490548958664967 0.0053343002111593445
90625002 -0.000611750289626319 0.005348913756624501
90654764 -0.0005299628822843589 0.00536282952411939
90684526 -0.0004897004593568672 0.005374645398921986
90714288 -0.0004964084749103844 0.005384857392379132
90744050 -0.0004594060162313598 0.005397362686170681
90773812 -0.000374338101236559 0.0054088036361670455
90803574 -0.00037887954020494966 0.005421282966869464
90833336 -0.0002945504285580457 0.005429567349279396
90863098 -0.0002722947598077835 0.005408732286345609
90892860 -0.0002931500299458912 0.005382790734005573
90922622 -0.0002232115905143463 0.005358967394877304
90952384 -0.00020010733730109942 0.005332598052124015
90982146 -0.0002176114183443439 0.005308272647352572
91011908 -0.00015194162879245986 0.00528482136930221
91041670 -0.00016886654379964655 0.005261159611300618
91071432 -0.0001317171790681652 0.005232430298474503
91101194 -0.00024767007133241314 0.0052144088375237155
91130956 -9.163720840473598e-05 0.005225158319994046
91160718 -0.000159018424143337 0.00525505305854041
91190480 -0.00018342458946164064 0.005282960917316275
91220242 -0.00033474891321586973 0.005310816696710273
91250004 -0.00024164353608054412 0.005345136024017122
91279766 -0.00039246790231508004 0.005369515897080087
91309528 -0.00025765809010972027 0.005402861793709477
91339290 -0.00032945148154619764 0.005431410541982011
91369052 -0.0003204408107056239 0.005462311478237289
91398814 -0.0005020955251471087 0.005464670764920816
91428576 -0.0003736558050199359 0.005446379102221175
91458338 -0.0003312948566383551 0.005424522230584639
91488100 -0.00036463353982825496 0.005396157266739891
91517862 -0.00035931337419294724 0.005371603107275215
91547624 -0.00031371842600494946 0.005347964491314413
91577386 -0.00030863875652084176 0.005322739053243818
91607148 -0.00033897228804913575 0.005295299734991121
91636910 -0.00033299251187240633 0.00526982164117773
91666672 -0.00029053062170216544 0.00524973469565601
91696434 -0.00025125966850983293 0.005260318939083997
91726196 -0.0001419947762681458 0.005273573875117504
91755958 -6.63649449646582e-05 0.005279310077308772
91785720 -2.5945872332659564e-05 0.005287698986578354
91815482 8.396467796319898e-05 0.005292463819340654
91845244 0.0001611185669046151 0.005294468867700392
91875006 0.00020466488692955548 0.005296024221035352
91904768 0.00018068429813539465 0.005297270531059248
91934530 0.00036076404284060353 0.00529478011578788
91964292 0.00039058267571293753 0.005306631897405543
91994054 0.00043166464233461384 0.005324661041774873
92023816 0.0002991182149497968 0.005346353571078884
92053578 0.00040813219163725616 0.005362689232165039
92083340 0.00041092140003538 0.005384474034807909
92113102 0.0004531426472050606 0.005402552690655098
92142864 0.00042399861675030136 0.005424814632736773
92172626 0.0004631929228852188 0.005443739192119188
92202388 0.0003385260188012464 0.005465902074481134
92232150 0.00043352917793931074 0.00545716423151078
92261912 0.0003212499936297881 0.005406508684882097
92291674 0.00043462526407055395 0.005354715673757845
92321436 0.00038784408637655476 0.005303093679437227
92351198 0.00040466348922099746 0.005253230539432555
92380960 0.0003612115561769643 0.0052015357486001924
92410722 0.0003499419262161935 0.00514956092331586
92440484 0.00036701579408285437 0.005101790871484645
92470246 0.00035562561798975294 0.005050437643405783
92500008 0.00031926061897051853 0.005001521800675573
92529770 0.0003242012511819885 0.0050173078552417545
92559532 0.0003530484986263707 0.00503542717118152
92589294 0.00033011332638724713 0.0050504019783404915
92619056 0.0003606399018625795 0.005069255038492742
92648818 0.00036255768397961774 0.0050876043063371335
92678580 0.00033949090588607244 0.005101044960738588
92708342 0.00037099219428500643 0.005118678189181946
92738104 0.00037336701977627864 0.005135688291191911
92767866 0.00034965886630564764 0.005148479550572934
92797628 0.0004027337797878149 0.0051585832367815315
92827390 0.0004138596837297175 0.005159101094707307
92857152 0.00045245433379778816 0.005161443922144741
92886914 0.0004138431857208819 0.0051573512775700435
92916676 0.0005718669984630125 0.005162694358344513
92946438 0.0005540596430179172 0.005164639036422227
92976200 0.0006208977120560473 0.005160190707951573
93005962 0.0005781587765742593 0.0051570932902082695
93035724 0.0006916581151908135 0.005156669929053077
93065486 0.0006962399725644193 0.0050840392794791
93095248 0.0008884112618640971 0.005119239830166343
93125010 0.0008842205968837368 0.005113931286698872
93154772 0.0010245774743881195 0.005077569358320628
93184534 0.0010453084777414705 0.005039639457243783
93214296 0.0011954283830424783 0.0050088332560315665
93244058 0.0012118519130976087 0.0049796755334826645
93273820 0.0013170427866249859 0.004948955584746782
93303582 0.0014153856224332674 0.004911726181716776
93333344 0.0015000684400927025 0.0048709910127938665
93363106 0.0014929523354135588 0.00486359693666915
93392868 0.00142427028855917 0.004881601905872651
93422630 0.0013866133282126238 0.004884126893434564
93452392 0.0013857725659081129 0.004881166761186274
93482154 0.0013091337314538108 0.004888067221834186
93511916 0.0012959615876971208 0.004884696912421627
93541678 0.0012582151590181132 0.004882019653784575
93571440 0.0012013024404003067 0.00487993949884929
93601202 0.001185929085637321 0.0048741548660947345
93630964 0.001216170988708265 0.004854688777262157
93660726 0.001266021336221953 0.004832450723051464
93690488 0.0013476965520421496 0.0048008226712525845
93720250 0.0013980943468392215 0.004770787302885028
93750012 0.0014641202768084847 0.004739231238738824
93779774 0.0015493316755349617 0.004704692316955482
93809536 0.001540592219663571 0.004678859215020193
93839298 0.001660140807895489 0.0046386278784232675
93869060 0.00172616129542948 0.004597946769351046
93898822 0.0017984914493986905 0.004556715525408115
93928584 0.001806025637722503 0.004517981104163738
93958346 0.0018514325389767882 0.0044764327890754714
93988108 0.0017989379444015919 0.0044464328916541075
94017870 0.00190718652112087 0.004389375825442816
94047632 0.001856487677112922 0.00436285086185245
94077394 0.001976224306337673 0.004299727009348672
94107156 0.0019609957726247854 0.004268065605759248
94136918 0.0020322593944517332 0.004206874744151252
94166680 0.0020138624616328053 0.004176911233298868
94196442 0.0021420391968412383 0.004351911676718297
94226204 0.00217125358426066 0.004574301982137724
94255966 0.002332919821870918 0.004795654083212124
94285728 0.0024203072196853884 0.005057586175448485
94315490 0.0025265466774362423 0.005353704693015628
94345252 0.0026495668729822866 0.005687926613462545
94375014 0.00273775885834602 0.006073695316240691
94404776 0.0028571068324924533 0.0065184051919973665
94434538 0.002945091191651599 0.00703719461664853
94464300 0.0029400808924648493 0.006756279809012242
94494062 0.0029028861530435547 0.006125679003201307
94523824 0.002847301669173357 0.005572841220539004
94553586 0.002774521885546679 0.0050935982268498735
94583348 0.0027242255426679876 0.00467199349702198
94613110 0.002643140253629258 0.004301088612757757
94642872 0.0025767340588137024 0.003970597806230218
94672634 0.0025225691199303128 0.003665962792539325
94702396 0.002461001234348853 0.0033971958026329597
94732158 0.0024164342627778506 0.003199961569404057
94761920 0.0024307932854489562 0.0030988988815375917
94791682 0.002426792807442839 0.003011781109735049
94821444 0.002463473635632789 0.002908018610283762
94851206 0.0024507876936163335 0.0028176804023427224
94880968 0.00249253375643293 0.002707751950812646
94910730 0.0024903255928219437 0.0026121046509520684
94940492 0.002509059738495437 0.0025093260216797423
94970254 0.0024959297021778276 0.0024145161662849765
95000016 0.0025125967094044585 0.0023079322511342466
95029778 0.0025244220087550814 0.002253256029157277
95059540 0.002555944690740534 0.002182554636499136
95089302 0.0025853351764121547 0.002107545077018772
95119064 0.0026065345344449763 0.0020319146108475935
95148826 0.002608489577382488 0.001968922951397814
95178588 0.002636698268051837 0.0018824425670103003
95208350 0.002656949466772317 0.0017958598305280488
95238112 0.002668714536766672 0.0017102362430179503
95267874 0.0026774049893930605 0.0016254880198846298
95297636 0.0026826966369585207 0.0015133673898486144
95327398 0.0026946582970544335 0.0014069778831713221
95357160 0.002688194692670686 0.0012911637315434809
95386922 0.0026826046057033975 0.0011703667737531427
95416684 0.0026650674919861273 0.001041646315698321
95446446 0.0026536915807245333 0.00092123941470193
95476208 0.002642425510822083 0.0007964388225962394
95505970 0.002623703840158107 0.0006592058424347339
95535732 0.0026002229013557168 0.0005289861339129161
95565494 0.002568286793732849 0.0003866081190551704
95595256 0.00252917664609252 0.0002366011947800251
95625018 0.002486004557548565 8.346051297946223e-05
95654780 0.0024447054807621113 -7.46269376985595e-05
95684542 0.0023845173713256795 -0.0002251243751463426
95714304 0.0023218419481848404 -0.000386180140524375
95744066 0.002243550010243553 -0.0005341194499511555
95773828 0.002174347285625621 -0.0007033035038516774
95803590 0.0020690734368002442 -0.0008534315456673265
95833352 0.0019754219620235856 -0.0010026919316245195
95863114 0.0018563162489538374 -0.0011508409877240063
95892876 0.0017312779810529251 -0.0012719163236386288
95922638 0.001586053370549064 -0.0014058149927592596
95952400 0.001463757896616681 -0.0015319145274992352
95982162 0.0013031574126636178 -0.0016348192735459093
96011924 0.0015309899449809348 -0.0016785297020127635
96041686 0.0009773123223761622 -0.0018715937739282218
96071448 0.0008105080149697771 -0.0019695238743455035
96101210 0.0006598442923242411 -0.0020504612285481855
96130972 0.0009877881884108226 -0.0021901883461029254
96160734 0.0003741896297141391 -0.002262972928500699
96190496 0.0001186101441416529 -0.002322404100848275
96220258 -7.484896288564547e-05 -0.002406269545892229
96250020 -0.00027025974536653533 -0.0024740817625622954
96279782 -0.00043252109267135475 -0.002557496899416682
96309544 -0.0006070507228101896 -0.0026206559127024353
96339306 -0.000811826489211893 -0.002658730448970683
96369068 -0.0009937293851266834 -0.0027213931013927678
96398830 -0.0012070938885664231 -0.002755389509492536
96428592 -0.0013824869929795305 -0.0028339460752837236
96458354 -0.0016485149623786553 -0.002795130507551325
96488116 -0.002401356520797961 -0.0019941148874824816
96517878 -0.0021174972153308303 -0.0027709104702673877
96547640 -0.00234291345712344 -0.0027386205105418685
96577402 -0.002552495583751634 -0.002714559269013679
96607164 -0.0027873825476955423 -0.0026555048157832725
96636926 -0.003315085241723862 -0.0016897645489031131
96666688 -0.0033288847508076984 -0.002924248339924236
96696450 -0.003379312488105467 -0.002465544954155111
96726212 -0.003527814145030757 -0.002390527763484542
96755974 -0.003277893983601256 -0.0033272756254437014
96785736 -0.0037882857018441537 -0.0021978306363747294
96815498 -0.0036152355204845965 -0.0031753403573854485
96845260 -0.004039131069189565 -0.001993296807025471
96875022 -0.004152583063137583 -0.0018889513689558525
96904784 -0.004268310806079046 -0.0017952389032720871
96934546 -0.0043536770750605665 -0.0016008340288403745
96964308 -0.0044576838912019625 -0.001589776844578877
96994070 -0.004574373183019852 -0.0015047755023559362
97023832 -0.0045277524639106 -0.00036256269254387346
97053594 -0.004796948419619726 -0.001345583863724545
97083356 -0.004887273098178679 -0.0012690592456751242
97113118 -0.0050485703455396096 -0.0023766448169438383
97142880 -0.005067671510456317 -0.001085815986654583
97172642 -0.004878127145351117 4.176257001188184e-06
97202404 -0.005235097384350929 -0.0009409330577361352
97232166 -0.0053088240472373045 -0.0008249070124808902
97261928 -0.0054022785240765234 -0.0007146601942120865
97291690 -0.0054564048196390404 -0.0005519967102640662
97321452 -0.005540858326265148 -0.0004130600487943628
97351214 -0.005600004629118532 -0.00031659575502815146
97380976 -0.005670853769914779 -0.00018037945890910415
97410738 -0.005701055729833681 -1.807980198604216e-05
97440500 -0.005753983976032496 0.00011674878985646696
97470262 -0.0052356881780092485 0.0011771910010041238
97500024 -0.005839155126969022 0.0003859024113298946
97529786 -0.005901509758916053 0.0004665667427671059
97559548 -0.005314772077130258 0.0015260050459971364
97589310 -0.005980079767223679 0.0007477903299148858
97619072 -0.005941103160258958 0.0009691303796339376
97648834 -0.0060754886116305635 0.0009710163168639192
97678596 -0.006081792960605372 0.0011146431487344722
97708358 -0.005395421833808998 0.0020460692277313054
97738120 -0.0061377442331603995 0.0013520038244440806
97767882 -0.006156307860204263 0.0014611679524952584
97797644 -0.006863726626963829 0.0007036816971772214
97827406 -0.006083799806525956 0.0017372843327941388
97857168 -0.0059695209458310895 0.0019189435428698326
97886930 -0.005890088090007122 0.002075993564508743
97916692 -0.006562248668034418 0.0014524181362910395
97946454 -0.005731966563054288 0.0023323465623033357
97976216 -0.006386517318237391 0.0017665110763830346
98005978 -0.004824565745453243 0.003109492590205724
98035740 -0.005472633348114988 0.0026775718323085976
98065502 -0.005476094046171732 0.0027350222221771718
98095264 -0.005557590338366275 0.002770140053107742
98125026 -0.005587005338104495 0.002819858442096939
98154788 -0.004903968389372423 0.003367346751502596
98184550 -0.005751339834444523 0.0028850632022114826
98214312 -0.005828139523893296 0.002908377738807327
98244074 -0.005108711632107687 0.003453483079832144
98273836 -0.006038939056476218 0.00292423929375067
98303598 -0.006080510604233162 0.0029718577724781566
98333360 -0.006162426479505911 0.00297849618793303
98363122 -0.006171177031926129 0.0029704897761972083
98392884 -0.006098053926811876 0.003030442048612489
98422646 -0.006114893817432569 0.0030240481445558782
98452408 -0.006071923078396219 0.0030462788339918746
98482170 -0.005996721515124148 0.0030986204706608665
98511932 -0.006012458181877806 0.0030855540914398283
98541694 -0.005122975504327065 0.00361455305293407
98571456 -0.005898871017985796 0.0031476357957158094
98601218 -0.0066699666801333605 0.0026251890494414626
98630980 -0.005817030108490698 0.0032262521952870077
98660742 -0.0057692543606750095 0.0033080186641431812
98690504 -0.004908999308156014 0.0038212473937005802
98720266 -0.006478913232765267 0.003000270704123643
98750028 -0.005607616877829522 0.0035561162900687397
98779790 -0.00555505379089788 0.0036348409823565237
98809552 -0.005551789085063431 0.003686241238546971
98839314 -0.005447849963778645 0.0037853258095968587
98869076 -0.005447825953242397 0.003835809833056295
98898838 -0.0061568202217866345 0.003528855696050791
98928600 -0.005357162864251715 0.00395713659262065
98958362 -0.006166065023317536 0.003619621995311419
98988124 -0.005422805864966054 0.004007983137063501
99017886 -0.005386358677482583 0.00405467715668232
99047648 -0.005441102757086706 0.004055460372196887
99077410 -0.0056819155430684245 0.004065544133996378
99107172 -0.005399525630226322 0.004148862582825105
99136934 -0.005466781355142769 0.004151826441324484
99166696 -0.005478098500935289 0.004186248141115327
99196458 -0.00543877710114051 0.004193272734672989
99226220 -0.005394051684582436 0.004200137670902878
99255982 -0.0051712278119284425 0.0039305403775845415
99285744 -0.005444833167049713 0.004183023283742014
99315506 -0.005346673915988852 0.004164362788716864
99345268 -0.005332089404335087 0.004157701243360377
99375030 -0.005269219016604948 0.004178319174690441
99404792 -0.005385941146247569 0.004131673738007106
99434554 -0.005375027605222085 0.00412653456920852
99464316 -0.005258942300163062 0.004199970671525786
99494078 -0.005229951736575235 0.004272668563414326
99523840 -0.00506996388160466 0.004379111811098946
99553602 -0.004979080434847501 0.004453234395135167
99583364 -0.005594857630163426 0.004271318234255584
99613126 -0.0040750434485769095 0.004825420528459088
99642888 -0.004702007872765059 0.004669885366478756
99672650 -0.004609608621751717 0.004736702315925236
99702412 -0.00518721454032404 0.004588539666108498
99732174 -0.004475770913586288 0.004827939039054814
99761936 -0.004266549118381294 0.004865812941445237
99791698 -0.004604830545560519 0.004776656056664789
99821460 -0.004582207473035348 0.004762736104391662
99851222 -0.004680603407225368 0.004726612555626833
99880984 -0.005333451567204393 0.0045050736217048465
99910746 -0.004687604206399081 0.004686354024564879
99940508 -0.005402107953553095 0.004449606570612986
99970270 -0.004755779234690009 0.004630989644197663
100000032 -0.004793641917179669 0.00462016568418147
100029794 -0.00476906494420743 0.004623656989060553
100059556 -0.004742385610333365 0.004645447707561095
100089318 -0.004715503361567217 0.004671183680408251
100119080 -0.004698085689022336 0.004682379244594787
100148842 -0.004678225361802394 0.004704093320465964
100178604 -0.00465790736740713 0.004720612907891784
100208366 -0.004630423162841241 0.004743873032453665
100238128 -0.004611977085857429 0.004759601492319478
100267890 -0.004594645845375827 0.00477661565749705
100297652 -0.004581381530651953 0.004787051340516912
100327414 -0.004580742523860199 0.004796381549015275
100357176 -0.0045733597894918425 0.004810187951430274
100386938 -0.004568404752750869 0.004815671429420877
100416700 -0.004572434787628403 0.004827281592953141
100446462 -0.004565775589522832 0.004839318578191924
100476224 -0.004558249802883147 0.004848539207069339
100505986 -0.004563061922426456 0.004854171437732709
100535748 -0.004559747683987402 0.0048643690500514
100565510 -0.004570704174094217 0.00488275245043329
100595272 -0.004603276439405347 0.00492035493939832
100625034 -0.004661737701252994 0.0049637492258001745
100654796 -0.0047055392749562235 0.005000960474701026
100684558 -0.00475814400266882 0.005045519701166562
100714320 -0.004800476696312834 0.005085220923221302
100744082 -0.004852703275791338 0.005126404375501702
100773844 -0.004908478799154057 0.005172117907077462
100803606 -0.004958471790117998 0.0052026345068207115
100833368 -0.005020136051618415 0.005244259122235101
100863130 -0.004956445011756294 0.005243779758963131
100892892 -0.0048950459723513294 0.0052458585207405175
100922654 -0.00484516473823401 0.0052390989029580965
100952416 -0.004785506768879445 0.005232681194856578
100982178 -0.0047301692251134324 0.005233460747647905
101011940 -0.004675799349782383 0.005226225379017995
101041702 -0.00462001216397193 0.005224484771432166
101071464 -0.0045563664407093874 0.005221535026802029
101101226 -0.0045017186876690155 0.005215096290009038
101130988 -0.004486930928766027 0.005211184097736358
101160750 -0.004489267521288203 0.00520300657571251
101190512 -0.004489850528771456 0.005208506733891483
101220274 -0.004493269549600198 0.005199719213851261
101250036 -0.004489422306179561 0.005198442633257103
101279798 -0.004495231627439659 0.005194208287704278
101309560 -0.004487384184694688 0.005190396898586146
101339322 -0.004490511870738875 0.005192292677965479
101369084 -0.004494708322150517 0.005183957783851778
101398846 -0.004472446563896866 0.0052058640593461575
101428608 -0.004416822253258987 0.0052692800452321265
101458370 -0.004358074916234883 0.00533772522227712
101488132 -0.004291994985436781 0.00539715269690092
101517894 -0.004232970692250012 0.0054617390117861556
101547656 -0.004164258639747446 0.005526946482306735
101577418 -0.004100828560706893 0.005586164205758782
101607180 -0.004034958810417069 0.005646159905531146
101636942 -0.0039650661167953336 0.005709811891161953
101666704 -0.003893911217590028 0.0057687816878704565
101696466 -0.0039904756918157725 0.005716045646457556
101726228 -0.004075011005129696 0.005662848895428692
101755990 -0.004162899861603973 0.00560688073019598
101785752 -0.004248496725289289 0.005545523809298916
101815514 -0.004337603972379319 0.005480786873787884
101845276 -0.004416542655986227 0.00541485675898694
101875038 -0.004496744181294172 0.005341566486234254
101904800 -0.0045775122481645164 0.005275791535588583
101934562 -0.00463754712012907 0.0051983605935381795
101964324 -0.004614621685844195 0.0052140671304515135
101994086 -0.004526234734113345 0.005264286984202411
102023848 -0.004442190101882369 0.005313112202809324
102053610 -0.004099956643476546 0.005319479235570321
102083372 -0.00424597076058519 0.005406053690407524
102113134 -0.00415470782943854 0.005447133584060466
102142896 -0.004064813770862159 0.005498767298670664
102172658 -0.003978619852816275 0.005532567789762207
102202420 -0.003926983024218326 0.005572582220748259
102232182 -0.003914790906533789 0.00560657694758792
102261944 -0.004000817426179304 0.0056360211703803545
102291706 -0.0040596753931449155 0.005658865761212148
102321468 -0.004119659364523625 0.005682731134532794
102351230 -0.004245359667748227 0.00570547360213712
102380992 -0.0043370927440189245 0.005729438732617648
102410754 -0.004436700935198435 0.005741259336532166
102440516 -0.004538069105671952 0.005760547830381166
102470278 -0.00464664234043392 0.005776103840829789
102500040 -0.004743390376042209 0.005786922491307704
102529802 -0.004695092646785904 0.005810269252503477
102559564 -0.004636470810042091 0.005833861198296338
102589326 -0.004639339540679819 0.005855253602406848
102619088 -0.004515849947326882 0.005874776045731401
102648850 -0.004463771137095136 0.005891054044386228
102678612 -0.004374159782345291 0.005907193457325783
102708374 -0.004347628661315176 0.005927817202403043
102738136 -0.00429135941769594 0.005947155327719354
102767898 -0.004236953089240364 0.005962074705354492
102797660 -0.004208261491125932 0.0059495124760001634
102827422 -0.004192506344604934 0.005919149437053265
102857184 -0.004177961892949621 0.0058962121662885485
102886946 -0.0041666247463342165 0.005868554677942635
102916708 -0.0041517366634584996 0.005839415737486653
102946470 -0.0041355284142391415 0.005813184022510006
102976232 -0.004124174439801002 0.005782676695095247
103005994 -0.004105403102819877 0.0057653934921269075
103035756 -0.004064129992218374 0.005744840059608559
103065518 -0.004082703536868186 0.00572754269846619
103095280 -0.004079498632667012 0.00575435688766686
103125042 -0.004082674036442489 0.00578514785949094
103154804 -0.004088650809974926 0.005812798395820103
103184566 -0.004088675860260663 0.005844325298343105
103214328 -0.004087016750884626 0.005868657976819359
103244090 -0.004095509210992217 0.005895990117121627
103273852 -0.004097160580475289 0.00592862959386656
103303614 -0.00409661390595435 0.005956497211070761
103333376 -0.004097475403274449 0.005984579995915893
103363138 -0.0040098906272264066 0.0059870597709556815
103392900 -0.00391297168313412 0.005987018258196386
103422662 -0.0038279755951669903 0.005979537506347245
103452424 -0.003742073202920537 0.005980429437309128
103482186 -0.003650614183780304 0.005970147458731969
103511948 -0.0035657081943792587 0.0059658201673490115
103541710 -0.0034841869276339256 0.005958722511228949
103571472 -0.003397260796262135 0.005948179792163001
103601234 -0.0033153622104633755 0.005937573979860018
103630996 -0.003318015997187929 0.005926305051207557
103660758 -0.0033658924720047782 0.005925619260036841
103690520 -0.003409435911405819 0.0059213161115354235
103720282 -0.0034556917818488716 0.005912173810746668
103750044 -0.0034981146009095193 0.005904157715192475
103779806 -0.003546904240549146 0.005895409408757077
103809568 -0.0035931324947616307 0.005884750704800996
103839330 -0.0036378973237567425 0.005876295455838613
103869092 -0.003687165151217409 0.0058623469068832795
103898854 -0.003727474480201427 0.005861072291335967
103928616 -0.0037662749135119024 0.005884594547956648
103958378 -0.0038050497401225913 0.005908786918253818
103988140 -0.003844232601049786 0.005934927667547994
104017902 -0.0038829888649089964 0.0059559941005971765
104047664 -0.003925219170852485 0.0059786149004778626
104077426 -0.003973347483991322 0.0060005278695878135
104107188 -0.004012873024698616 0.006024350860415216
104136950 -0.00405633765386526 0.006045589618733339
104166712 -0.004100689186147924 0.006064771564330442
104196474 -0.004082701361997344 0.006108886261731187
104226236 -0.004072217053756477 0.0061580207604315955
104255998 -0.0040570237675917175 0.006202338568434868
104285760 -0.004047916948730284 0.00624918154355041
104315522 -0.004031303542263794 0.006291256008912643
104345284 -0.004019538153762895 0.006341882396591063
104375046 -0.004001833258981955 0.006384704568595014
104404808 -0.0039866385348729765 0.006437589438218768
104434570 -0.0039747021213173105 0.0064804882121568454
104464332 -0.003959921353069794 0.006461569618704611
104494094 -0.003949372676536799 0.006401166453913273
104523856 -0.003941318348490029 0.006343566935264396
104553618 -0.003924637476809836 0.00628401570678027
104583380 -0.00391681444184749 0.0062298483041638465
104613142 -0.0039024105662976037 0.006173603859054128
104642904 -0.0038974794997824603 0.006119140065123811
104672666 -0.0038773297542058468 0.006067213846571144
104702428 -0.003870094081820163 0.006011868836588915
104732190 -0.003859319786651359 0.00600109797990315
104761952 -0.00383848843929684 0.006075959416530235
104791714 -0.0038160052798791927 0.006145103402662322
104821476 -0.0037952878994516144 0.0062169079278564104
104851238 -0.003773077532349751 0.006290216449666017
104881000 -0.003747641215472829 0.006362962766009959
104910762 -0.0037259953156420626 0.0064400153572062415
104940524 -0.00370090032869571 0.0065177430923368225
104970286 -0.0036711480969425603 0.00659519003844636
105000048 -0.003652959674135917 0.006668451953035006
