# HZ S RI R 50
90000000 -0.0006753469005245475 0.0054154545609362194
90029762 -0.0006437880450884939 0.005451455205953611
90059524 -0.0008803859905373996 0.005469267918102947
90089286 -0.0007430738773851002 0.005512745395012959
90119048 -0.0009289421852040552 0.00553195017033355
90148810 -0.0007937386429876886 0.0055743755333133825
90178572 -0.0008197586355909329 0.005606355904098601
90208334 -0.0007941404966874011 0.005639721286319744
90238096 -0.0010349074330088508 0.005659515292023363
90267858 -0.0009022828748172417 0.005701650244531082
90297620 -0.000893945246268487 0.00568393770704889
90327382 -0.000814791187847021 0.005640901098296856
90357144 -0.0008367245477617604 0.005591258411051185
90386906 -0.0007607780353749812 0.0055508857455646154
90416668 -0.0009368287898590646 0.0054968677540865405
90446430 -0.0007622611885205572 0.005460366384767135
90476192 -0.000687293998610411 0.005418808999580832
90505954 -0.0006610480050245075 0.005378599835593411
90535716 -0.0006843118051396302 0.005332737312186066
90565478 -0.0006083525558766097 0.005313242790279967
90595240 -0.0006172010496501405 0.0053224779472827045
90625002 -0.0005806199533944634 0.005335942066836386
90654764 -0.0004972228934894401 0.005350657347178157
90684526 -0.000458295528672093 0.005361115051459845
90714288 -0.0004649025887666264 0.0053725205384426945
90744050 -0.0004261825889172763 0.005383762673903279
90773812 -0.0003413473256036934 0.00539397025892781
90803574 -0.0003477042626538944 0.005401997405665346
90833336 -0.00026272964629011383 0.005413935658218426
90863098 -0.00023873664994604154 0.005392017515030352
90892860 -0.0002576980160294415 0.005365176048477857
90922622 -0.0001885247117413122 0.005341232151577207
90952384 -0.00016542420531956705 0.005318201755416195
90982146 -0.00018522199383890568 0.0052921223156937175
91011908 -0.00011939735590816822 0.0052692538449097374
91041670 -0.00013782647290349514 0.005243836219163394
91071432 -0.00011392870871470991 0.005218975661254177
91101194 -0.0002129259981532324 0.00519430939045361
91130956 -5.7832301755906325e-05 0.005205313141946812
91160718 -0.0001247320194716174 0.0052337500005600205
91190480 -0.0001508404768906049 0.005265638263375487
91220242 -0.000297710195176188 0.005293263024851115
91250004 -0.00020251014107039496 0.005326613920456064
91279766 -0.00035329404726319193 0.00535125072508769
91309528 -0.0002193383233266849 0.0053843614603336695
91339290 -0.00028944368461997997 0.005414555625076149
91369052 -0.00028059192144782983 0.005444123588928478
91398814 -0.0004608608071955755 0.00544352805232748
91428576 -0.0003339705067680838 0.0054239753243894755
91458338 -0.00028779805102534093 0.00540224204158656
91488100 -0.0003232092039253361 0.005375404112124206
91517862 -0.0003168285830607491 0.0053524794888628905
91547624 -0.00027027769010790927 0.005325672247013146
91577386 -0.00026743049476201313 0.005301980257349913
91607148 -0.00029692343633651514 0.005275512101936671
91636910 -0.0002884697095241789 0.005250473420522013
91666672 -0.0002463354574820043 0.005227661299773836
91696434 -0.00020650327457776861 0.005234173939989934
91726196 -9.707805887166512e-05 0.005246606130564491
91755958 -2.1262136490687097e-05 0.005254981335465377
91785720 1.9723491858528022e-05 0.005259683554619086
91815482 0.00013160445137679383 0.00526533876942172
91845244 0.0002081365953618089 0.005266379699583472
91875006 0.0002512104652121925 0.0052679823485370205
91904768 0.00022606895560944225 0.005268035741120895
91934530 0.00040676979495953523 0.005264378054167556
91964292 0.0004393180903325473 0.0052764449253221565
91994054 0.0004797709335965856 0.0052910505425003244
92023816 0.00034962661693196674 0.0053156454964162474
92053578 0.0004582376579987039 0.005331937017705478
92083340 0.0004646404873688338 0.005346187814936691
92113102 0.0005041413049816528 0.005367949437767043
92142864 0.00047524566616326535 0.005386889728031831
92172626 0.0005164060146843991 0.005404350763317834
92202388 0.0003917919623914132 0.00542788662256397
92232150 0.0004886838049551069 0.005422013123140753
92261912 0.00037727583077020756 0.00536761956253729
92291674 0.00048818747582323206 0.0053151180835762585
92321436 0.00044089284383313473 0.005263782148000721
92351198 0.00045871269781110806 0.005212524959072585
92380960 0.000414406091351973 0.0051604699931393225
92410722 0.000404995744100301 0.005109329821939495
92440484 0.0004208791879633623 0.005062226644156184
92470246 0.0004123778577311584 0.005012160334356139
92500008 0.00037753363108470846 0.004962266563956891
92529770 0.0003800843884699299 0.0049794103597167365
92559532 0.0004105529910421376 0.004993660313168344
92589294 0.00038740144256918757 0.005008657697167509
92619056 0.00042021083598103967 0.005026838457057854
92648818 0.0004248093558477732 0.005042901474031463
92678580 0.00040105455572709057 0.005054276357207322
92708342 0.0004331563685499587 0.005072875813275212
92738104 0.00043835392105444544 0.005087181635994615
92767866 0.0004173711489475689 0.0051006825263594105
92797628 0.00047112834391241804 0.005109721935504535
92827390 0.0004815731680663537 0.005108651300165035
92857152 0.0005218814666412213 0.0051074418261476675
92886914 0.0004831479717596106 0.0051039869265715925
92916676 0.0006267705849069134 0.005107858444414048
92946438 0.000640072684453876 0.0051062320460140455
92976200 0.0006811407062023475 0.005105464388443616
93005962 0.0006514669972904945 0.005094858090272629
93035724 0.0007676983731342971 0.005092036848348914
93065486 0.000747826404026957 0.005082164876366049
93095248 0.0009011525048476882 0.0050663910147173445
93125010 0.0009922605412141764 0.005035618433831885
93154772 0.0010991385695112525 0.005003255727886255
93184534 0.0010754161157625036 0.00497779610224658
93214296 0.0012109235023107093 0.004950392871931552
93244058 0.0012418597531470045 0.004911223169588396
93273820 0.0013459479696165454 0.004890239794592316
93303582 0.0014589137796754664 0.004835320823938172
93333344 0.00158923178838327 0.0047768221101878935
93363106 0.0015561029370776377 0.004781915942924169
93392868 0.001498300774304237 0.004789445936691046
93422630 0.0014641427591137951 0.0047917635799379415
93452392 0.0014506170312124516 0.004788289347661608
93482154 0.001392888672985994 0.004791492091854386
93511916 0.0013814942187527531 0.004786317336755687
93541678 0.001345629283197831 0.004782854843436658
93571440 0.0012911686365070106 0.004779515234692015
93601202 0.001262247343667126 0.004776821760129375
93630964 0.001310755694703859 0.004749995913702941
93660726 0.0013560018409330007 0.004723932265007871
93690488 0.0014440775362969075 0.004688918523523088
93720250 0.0014900662479033035 0.004655096242879855
93750012 0.0015551961995665167 0.0046228606840943275
93779774 0.0016381714015089482 0.004583585583565284
93809536 0.001633194700183714 0.004551622649247949
93839298 0.0017395934646991938 0.0045086515102080345
93869060 0.00181932501788109 0.004460343566872074
93898822 0.0018893554124560356 0.004416822702732007
93928584 0.0018995283407341283 0.004375543958388667
93958346 0.0019407880075685462 0.00432744233131761
93988108 0.0019062954539025663 0.004294500189524828
94017870 0.0019791272302658314 0.004237025980724753
94047632 0.001965960521485457 0.004198402831874585
94077394 0.002050180677293897 0.0041431012908139594
94107156 0.002065903138029074 0.004094611737549344
94136918 0.002105285960736957 0.004043939793250512
94166680 0.0021210515987711157 0.003990788941089371
94196442 0.0022154921552769574 0.00416373924795042
94226204 0.002277129115939005 0.004366330756387588
94255966 0.0024427160906657567 0.004577434878444852
94285728 0.0025383130729495465 0.004815161413421772
94315490 0.0026514315457005816 0.00509325301846597
94345252 0.0027947609121769593 0.005400872356137452
94375014 0.0028883291602354406 0.005767575916190547
94404776 0.003029952205813559 0.006178587287256563
94434538 0.0031403469793923364 0.006665215724360478
94464300 0.0031179208383707883 0.006382820858833461
94494062 0.0030719208655191044 0.0057609677474607076
94523824 0.0029986879132836678 0.005221671821369264
94553586 0.002903882039474603 0.0047559262613393015
94583348 0.002839848700695185 0.004339168794434543
94613110 0.0027460642124304334 0.0039859433056500665
94642872 0.0026692488292715403 0.003654900309634814
94672634 0.002601453825730464 0.0033576326250444946
94702396 0.0025299187875318318 0.0030910610364558743
94732158 0.002476453157358562 0.0029009965544096296
94761920 0.002486197515849138 0.0027938866028144865
94791682 0.00247411567215575 0.002703277282470205
94821444 0.002506479965164737 0.0025918489429208346
94851206 0.0024902846429133707 0.0024964246620738507
94880968 0.0025178707814603758 0.0023788297746656826
94910730 0.0025195032595671436 0.002274294979219406
94940492 0.002522816293512667 0.0021682567291341367
94970254 0.0025025018001460027 0.0020679398921469496
95000016 0.0025114817182571945 0.0019519675779983282
95029778 0.0025127014062343365 0.0018855211794209868
95059540 0.002543381320795899 0.0018013314931381924
95089302 0.0025580636232398887 0.0017216616159695987
95119064 0.0025688751888041533 0.0016328335847188107
95148826 0.0025622524783877358 0.0015606958207050395
95178588 0.002579312887961024 0.0014605279711588353
95208350 0.002582227791297519 0.0013704158598481335
95238112 0.0025849506593689773 0.001264020533018434
95267874 0.0025813475732851827 0.0011685116967426047
95297636 0.0025701314305117463 0.0010520024968879713
95327398 0.0025585966257629968 0.0009268039759537632
95357160 0.002540397332137259 0.0008068256655311642
95386922 0.0025186844496477793 0.0006699754227526288
95416684 0.002486797964410963 0.0005507842381174249
95446446 0.0024520632950487116 0.00041557944078722184
95476208 0.002410680031661246 0.00028238469912882466
95505970 0.0023602527282399637 0.00015782020919799633
95535732 0.002320009355393833 1.5479649851712954e-05
95565494 0.002257092982608067 -0.00013170335601478736
95595256 0.002192702328301496 -0.0002798161440222714
95625018 0.002123994017189321 -0.0004311478921129628
95654780 0.00204518715580894 -0.0005787246941670052
95684542 0.0019558771591903514 -0.0007342095264266889
95714304 0.001857478250317851 -0.0008821245419670902
95744066 0.0017455231796639165 -0.0010097382684923584
95773828 0.001646206785514022 -0.0011701789704164705
95803590 0.0015158854526062262 -0.0013065122716269253
95833352 0.0013903589857750603 -0.0014417150517843722
95863114 0.0012409048568587347 -0.0015521938474847463
95892876 0.0010820268058177116 -0.0016611734126793394
95922638 0.0009322970835210331 -0.00175818684303422
95952400 0.000766478236436465 -0.0018576481575202023
95982162 0.0006017307058905877 -0.0019393201341206159
96011924 0.0009478329501672359 -0.0020942368950202556
96041686 0.0002792596998431315 -0.0021086317558850812
96071448 9.970969011534367e-05 -0.0021833368026289712
96101210 -4.501385666763541e-05 -0.002250325625853817
96130972 0.0003853529821235997 -0.0025205139682956197
96160734 -0.00041906331289177684 -0.0023575038213040998
96190496 -0.0006080451884574234 -0.0024215153220565073
96220258 -0.0008572354274131278 -0.002416851065336521
96250020 -0.0010349981111436668 -0.00245255194314509
96279782 -0.0012085474546655655 -0.002498625418004176
96309544 -0.0013787336089749458 -0.002546098809132123
96339306 -0.0015776999740318585 -0.0025520424930289454
96369068 -0.0017749016527060897 -0.0025738995480439446
96398830 -0.0020028480763257116 -0.002550737609783537
96428592 -0.0021883271557797696 -0.002547312695265836
96458354 -0.002406547301234449 -0.0025132557209805876
96488116 -0.0029483417728416966 -0.00160252474512844
96517878 -0.0028207348452945493 -0.002402720625293093
96547640 -0.0030392410351649402 -0.002343914845768403
96577402 -0.0032348022863038263 -0.0022622962135464323
96607164 -0.003431800251880932 -0.002194249824586966
96636926 -0.003748947048229691 -0.0010936053168259445
96666688 -0.003793226990789348 -0.002033215300795007
96696450 -0.0039063097885747 -0.0018744269419424052
96726212 -0.004029344976172328 -0.0018205268683094162
96755974 -0.0039318572596114525 -0.0028087652868829475
96785736 -0.00423759578041114 -0.0016087528945671393
96815498 -0.004215535291763265 -0.002637897594550931
96845260 -0.004427309762240969 -0.0013736079771622428
96875022 -0.00449059800799444 -0.0013019192410851559
96904784 -0.004550795934598311 -0.0012114860465138107
96934546 -0.004609279578163171 -0.0010096288222008404
96964308 -0.004712817910222813 -0.0009909459195504649
96994070 -0.004796108625846322 -0.0008985947703828157
97023832 -0.004593436740483077 0.00017474020397927927
97053594 -0.004959809053102894 -0.0007389078844041159
97083356 -0.005042824305186926 -0.000688338923530063
97113118 -0.005318878495054821 -0.0017220950258444447
97142880 -0.005148125938457744 -0.000503046685045416
97172642 -0.004837783612221939 0.000523611355402895
97202404 -0.005296604023395034 -0.00038887879788411517
97232166 -0.005334969580538854 -0.0002774119982726336
97261928 -0.005400675731165889 -0.00016506011979922387
97291690 -0.005441361836487561 -2.602412414139282e-05
97321452 -0.005493730753717519 9.225959203100755e-05
97351214 -0.0055459420266063385 0.00019526794096358157
97380976 -0.005596773364566809 0.00032102623505703577
97410738 -0.0056159993793839956 0.00047024027656976527
97440500 -0.005641464010953449 0.0005804307180417639
97470262 -0.005078224343822393 0.0015355864133040876
97500024 -0.005700429293341668 0.0008250164248215756
97529786 -0.005754087130893004 0.0008985691847349794
97559548 -0.0051215603699907705 0.0018396508841791788
97589310 -0.005794020103916215 0.0011488293357944743
97619072 -0.005749626375007581 0.0013603726835982807
97648834 -0.005874870015074705 0.001340095055788503
97678596 -0.00587630092279593 0.0014651497639231775
97708358 -0.00518497187367754 0.00229687967080914
97738120 -0.005911827803586274 0.0016710146352494635
97767882 -0.005923277112758278 0.0017722248014330683
97797644 -0.006616321763736333 0.0010811831256467693
97827406 -0.005830884004118217 0.0020196547223272263
97857168 -0.005730955369455921 0.0021637710685511054
97886930 -0.0056487858633541485 0.002297459105437754
97916692 -0.006307105635519279 0.0017258959303290767
97946454 -0.005483282017286341 0.0025276365253347264
97976216 -0.006141382269801703 0.0020127160463051194
98005978 -0.004613446432848766 0.003238132120512441
98035740 -0.005245908411210906 0.0028273789274184604
98065502 -0.005237251685194214 0.0028752222334274065
98095264 -0.005313797822172608 0.002903276481820327
98125026 -0.00535434907970993 0.0029488367470698737
98154788 -0.004700085356773342 0.0034537508714208853
98184550 -0.005508986680448953 0.003004201782991237
98214312 -0.005536876197689746 0.0030630959734888543
98244074 -0.004898661082809315 0.003526894763484916
98273836 -0.005789408813583389 0.003021038912263562
98303598 -0.005828230186053167 0.003063928674833607
98333360 -0.00590612687386083 0.0030701155676012316
98363122 -0.005924783258446491 0.0030722908392400387
98392884 -0.005845622176309981 0.0030974191845997054
98422646 -0.0058283853593986724 0.0031148869937818956
98452408 -0.005834538739836581 0.003106537950062961
98482170 -0.005723354770277693 0.003161649272402253
98511932 -0.0057750592964479226 0.00313458578653566
98541694 -0.004894175712582332 0.0036395634146003646
98571456 -0.005670422843517508 0.0031830096999393345
98601218 -0.006375275431740251 0.0026896759759738433
98630980 -0.005603561968782245 0.0032420228743027545
98660742 -0.0055535586317279105 0.00333095002122022
98690504 -0.004738384142745433 0.0038136121956668777
98720266 -0.006232253121230675 0.0030112540942752383
98750028 -0.005412207964815111 0.0035422940468147327
98779790 -0.005365096787210046 0.003613988337837931
98809552 -0.005355799500112809 0.0036564090962893448
98839314 -0.005257043999379609 0.0037553113020665665
98869076 -0.0052673963786090145 0.0037964402417209734
98898838 -0.005952956642449574 0.003488839522685679
98928600 -0.00518600329984462 0.003906480384994298
98958362 -0.0059736975511127405 0.003566038904953349
98988124 -0.005264139448867972 0.003937829787935661
99017886 -0.005208987434948715 0.004009282695686155
99047648 -0.005261099363423314 0.004006274764089612
99077410 -0.005215035201831671 0.004056266517048473
99107172 -0.005234084499032337 0.004081596067857081
99136934 -0.005365299546994928 0.004082704301434068
99166696 -0.005350603341540871 0.004098573561410386
99196458 -0.005312388108658901 0.004121615707304129
99226220 -0.0053869524422299475 0.004316841298853576
99255982 -0.0052938055741534274 0.004087617422907322
99285744 -0.005266421775103131 0.004094521802758593
99315506 -0.005213024290051072 0.004079412703472822
99345268 -0.005276061710028554 0.004052066881019606
99375030 -0.005212275480576896 0.004072525842063674
99404792 -0.0052277958688546605 0.004044374732443412
99434554 -0.005254638756845526 0.004018030448540416
99464316 -0.0051663675748575295 0.004100605174471675
99494078 -0.0052139170578537454 0.0041622838504837825
99523840 -0.004974255751265549 0.00426697150493285
99553602 -0.004886583278308683 0.0043412983022481965
99583364 -0.005488502507804918 0.004146230189672206
99613126 -0.00400596924632785 0.004723682074115615
99642888 -0.004627061525938596 0.0045493206814989015
99672650 -0.004445432809430367 0.004622959995945219
99702412 -0.00511393926843106 0.004461424612655045
99732174 -0.004383058747065103 0.00471373675519198
99761936 -0.004278983865997957 0.004749507332386327
99791698 -0.004431572650704439 0.004654595054656765
99821460 -0.004531363892079484 0.004642915424568083
99851222 -0.004631202394956079 0.004592191781751395
99880984 -0.0052756474123868274 0.004364314387058117
99910746 -0.004645014937394627 0.004564300253835949
99940508 -0.005353274991181873 0.00430511000194627
99970270 -0.004722195904779666 0.0045044303322946165
100000032 -0.004762040276673603 0.004487405561113295
100029794 -0.004737683332812409 0.0044982829097566365
100059556 -0.004724276389814254 0.00451497837678098
100089318 -0.004702622204503454 0.004533380375910937
100119080 -0.004688962347175656 0.004557480571130792
100148842 -0.004674666807727344 0.004573643393675258
100178604 -0.004655095814266642 0.00459209393382659
100208366 -0.00463849938832443 0.004614707451485026
100238128 -0.004626020450588316 0.0046309471844632605
100267890 -0.004606821704641526 0.0046526044688032465
100297652 -0.004597977726835887 0.004665146049643308
100327414 -0.004599397198786529 0.004673459280567567
100357176 -0.004603332285663594 0.0046873479495975765
100386938 -0.004599985916494313 0.00470315290986741
100416700 -0.004593995320868286 0.004711264230120831
100446462 -0.004604546130676471 0.004723874788305418
100476224 -0.004605324407613206 0.004735158743072549
100505986 -0.004600999265748576 0.004747612596228796
100535748 -0.0045987620240892264 0.004754582917547809
100565510 -0.004620373701751053 0.004776416873799639
100595272 -0.004666492743566726 0.004818745806611657
100625034 -0.004716596983048536 0.004858309343166551
100654796 -0.004765775178947671 0.004902310245390396
100684558 -0.004810948720932889 0.004939941493559197
100714320 -0.004866722888762705 0.00498769982376803
100744082 -0.004918740332602142 0.005027219763942622
100773844 -0.004983095852198527 0.005065278480890207
100803606 -0.005038771716900174 0.005107590325485333
100833368 -0.005094991054652936 0.00515351247639603
100863130 -0.0050378377813581595 0.005151645975279644
100892892 -0.004987529637160943 0.0051531727646645445
100922654 -0.004928085349647766 0.0051565999795900284
100952416 -0.004870701890431213 0.005156352134958182
100982178 -0.004816914898915018 0.0051530145760076175
101011940 -0.00475806098657989 0.005159170010660183
101041702 -0.004705238001858505 0.0051629787744018035
101071464 -0.004685562147994697 0.005158965757205897
101101226 -0.004639325758079279 0.005155615455473107
101130988 -0.004616498483095953 0.0051558927621485305
101160750 -0.0046165263882802085 0.0051583979499679475
101190512 -0.00461485417522802 0.005160011591722304
101220274 -0.004616323997041527 0.005158256297763476
101250036 -0.004624464067655456 0.005155401555749015
101279798 -0.0046189669147159865 0.0051562305486780495
101309560 -0.004586762475074618 0.005154351165605433
101339322 -0.004589690632482573 0.005155578875755969
101369084 -0.004591455509014502 0.005152617314285715
101398846 -0.004573166380320004 0.005176181653435888
101428608 -0.004516640240533946 0.005245802642898824
101458370 -0.004457730349252214 0.005319892594246646
101488132 -0.004397465597796154 0.005385026279201882
101517894 -0.004332067271503031 0.0054549488028738085
101547656 -0.004269736813604325 0.005523158780531258
101577418 -0.00420228477969357 0.005585540932187768
101607180 -0.004134077784342342 0.005644551287670364
101636942 -0.0040577015415140935 0.005713867662607896
101666704 -0.003993862908538988 0.00577195731103617
101696466 -0.004081653565763748 0.005716034040916175
101726228 -0.004173865621352367 0.005670298235301574
101755990 -0.0042542121311241994 0.005614585253580698
101785752 -0.004341844286600931 0.0055561024068513185
101815514 -0.004427471702389805 0.005494331707362407
101845276 -0.00450663215076153 0.005427575130994379
101875038 -0.0045802133816070555 0.005362304248630695
101904800 -0.004664930504859259 0.005291738907004985
101934562 -0.00473336801473258 0.005209385395735995
101964324 -0.004700202881781624 0.005226515097744777
101994086 -0.004613327832886372 0.005283707895821666
102023848 -0.004529682632859768 0.00533661538466544
102053610 -0.004443578261551352 0.005389246597728627
102083372 -0.004351617675709513 0.005439975572187336
102113134 -0.004258112649870018 0.005484901650504847
102142896 -0.004169744179936591 0.005531086848463388
102172658 -0.00408064294236842 0.005574233054180355
102202420 -0.003987674228305148 0.005614911663309307
102232182 -0.004069848253496109 0.0056638003300120855
102261944 -0.003984784599583925 0.005658970172531709
102291706 -0.004097862373728891 0.005695658459427993
102321468 -0.004158758960266586 0.005716539591026407
102351230 -0.004311599196217598 0.005749269248454438
102380992 -0.004406815110888573 0.005767456226543191
102410754 -0.00459281836633016 0.005797639916771013
102440516 -0.00461004273802382 0.005799662299773718
102470278 -0.004706365344265165 0.005820120640665669
102500040 -0.004749672475562177 0.005819636629432632
102529802 -0.004756088477800418 0.005848088888306553
102559564 -0.004697343984713472 0.005875646722203045
102589326 -0.004637622019460105 0.005895730878302993
102619088 -0.0045750913797272886 0.005912042908898869
102648850 -0.004521978385109036 0.005939812440639942
102678612 -0.004457693814624932 0.005956083062522202
102708374 -0.004398697238132161 0.005972459679604428
102738136 -0.004282993208378495 0.005982744182462734
102767898 -0.004286712359192092 0.006008840553633924
102797660 -0.004254231346685316 0.005995424006213346
102827422 -0.004242719148034009 0.005972750440202868
102857184 -0.004227993922148771 0.005944307260267281
102886946 -0.004098328771228311 0.005801971685010639
102916708 -0.004192647276556151 0.005884348351125703
102946470 -0.004174293604197861 0.005856954638409766
102976232 -0.004160571152866477 0.0058368299076916276
103005994 -0.004143803982696967 0.005807930089570012
103035756 -0.004125625223736771 0.005781848145143555
103065518 -0.004118863187525822 0.005773636110141873
103095280 -0.004118899459842541 0.00580281398064876
103125042 -0.004118743348767783 0.005828968125720827
103154804 -0.004118035828395314 0.005861919848044503
103184566 -0.004123395171974576 0.005885493613292909
103214328 -0.004121150707353954 0.005915259956771484
103244090 -0.004124863927482675 0.005944807548644579
103273852 -0.004121268610385936 0.00597589219111209
103303614 -0.004127408588415964 0.006002283881770938
103333376 -0.00412474845493163 0.0060342682482679615
103363138 -0.004036940611898188 0.006030903679159456
103392900 -0.003940560201219941 0.006030404079383011
103422662 -0.003848818199803724 0.006030473267396912
103452424 -0.0037620565665458772 0.00602435358441797
103482186 -0.0036738002915908305 0.0060142268036801685
103511948 -0.003584480106522335 0.006007484192774595
103541710 -0.003497930329081842 0.006002274393014419
103571472 -0.003412515224610135 0.005992891206504137
103601234 -0.0033297492663248002 0.005980934543296674
103630996 -0.0033316233844939255 0.005971291124552563
103660758 -0.003374644929422062 0.005967698420933861
103690520 -0.003421330538950667 0.00596226063400675
103720282 -0.0034674343177299597 0.00595359591718408
103750044 -0.003512074883146675 0.005947727835214922
103779806 -0.003558313645112304 0.0059373569220534834
103809568 -0.003602081965072293 0.005925796385729293
103839330 -0.00365163525252888 0.005913814580562276
103869092 -0.0036964076684871524 0.005903368001221919
103898854 -0.00373927211891546 0.005897653720009166
103928616 -0.003775886144193186 0.00592362859337993
103958378 -0.003815193041964506 0.005945436022262992
103988140 -0.0038515751767903357 0.005970088208264287
104017902 -0.0038953020694889678 0.005990738356826902
104047664 -0.003938534148772927 0.0060173931510507685
104077426 -0.003980708030046293 0.006034872408682611
104107188 -0.004020789851984423 0.006057264786646431
104136950 -0.004065449118938666 0.006080219509417556
104166712 -0.004106657585046508 0.006103761357984615
104196474 -0.004097633772594051 0.006145334219384501
104226236 -0.0040791202312110055 0.006191413413789374
104255998 -0.004065643851427167 0.006236403482060595
104285760 -0.0040534335491104415 0.006282339644356453
104315522 -0.004037413470691912 0.006329369681794317
104345284 -0.004019989586969059 0.006372176572662753
104375046 -0.004004750669770284 0.0064232236510962624
104404808 -0.003991647860813139 0.006470046885496228
104434570 -0.003971357641483718 0.006519605284008936
104464332 -0.003934063905993239 0.006489985174359118
104494094 -0.003949347155666728 0.00643387657353189
104523856 -0.003942764781282143 0.0063741338087365314
104553618 -0.003930556318374165 0.006315960136451515
104583380 -0.0039221515866912715 0.006256776051737407
104613142 -0.003909672130102196 0.006204821165467004
104642904 -0.0038996490140003085 0.006146715475625491
104672666 -0.003885258688635343 0.006093669001504194
104702428 -0.0038779279650410906 0.0060417884744709315
104732190 -0.0038617708203851284 0.006027334807819966
104761952 -0.0038385217441093706 0.0061022174995498365
104791714 -0.003818542981934613 0.006172909002322725
104821476 -0.0037962284765023844 0.006243603449380844
104851238 -0.0037768740162496734 0.006321619112593971
104881000 -0.003750356601911704 0.00638882752919247
104910762 -0.0037243049833724437 0.006463591674846021
104940524 -0.0036977016555337153 0.006540238949520673
104970286 -0.003679496760295575 0.006617024076513107
105000048 -0.0036473833599819767 0.006696489124216544
