# HZ S RI R 50
90000000 -0.0006062524619270809 0.00540110974541399
90029762 -0.0005759620628737401 0.005435657488170317
90059524 -0.0008058889960327622 0.005456076927234636
90089286 -0.0007227305507817756 0.0055010177584043415
90119048 -0.000852106951859061 0.00551978359922811
90148810 -0.0007204254236948221 0.005560317805442974
90178572 -0.0008740100851214943 0.005594982157380191
90208334 -0.0007185020503409112 0.005627713731682235
90238096 -0.0009588671095541878 0.005643253898639683
90267858 -0.0008221537629656832 0.005687379883687896
90297620 -0.0008139794270701252 0.005668462561753548
90327382 -0.0007388608815209662 0.005623909522064301
90357144 -0.00083797897714486 0.00557286756055926
90386906 -0.0006814044258002526 0.005534494569047858
90416668 -0.0008582620079695208 0.005476972435618751
90446430 -0.0006825003186026481 0.00544361993570502
90476192 -0.0006095436847992114 0.0054040222203490355
90505954 -0.0005815366275594638 0.005356889543984098
90535716 -0.0006056516651699027 0.005313504318850519
90565478 -0.0005323976491562423 0.005292116343403281
90595240 -0.0005363586757599484 0.005302897532106289
90625002 -0.0005009346724602229 0.005316690836904832
90654764 -0.00041793737485879657 0.005327140902301586
90684526 -0.0004017881461564783 0.005343053430578997
90714288 -0.00036124396479116875 0.005345409346590253
90744050 -0.00036752226581223194 0.0053641708312793255
90773812 -0.00023457537184349124 0.0053657416107269484
90803574 -0.0002895234265249859 0.005380853780175413
90833336 -0.00015574026091386324 0.005383597911175529
90863098 -0.0001805557143104825 0.00536897544862043
90892860 -0.00017409947330730976 0.005337736573048797
90922622 -0.00010339808527309298 0.005315933879887841
90952384 -8.12306182823967e-05 0.0052902839252522565
90982146 -9.75986849271623e-05 0.005263401715825715
91011908 -3.2978195234399124e-05 0.00523917959068105
91041670 -5.074403231121782e-05 0.005214383261268751
91071432 -2.6019806541457735e-05 0.0051903068317962564
91101194 -0.00027037179309504324 0.005180249813436475
91130956 2.8707466761807344e-05 0.005174538356910256
91160718 -3.499843830258258e-05 0.005201624153450236
91190480 -5.766760269703258e-05 0.005229539844611551
91220242 -0.00020500394702812908 0.005262813850634983
91250004 -0.00010984049285649081 0.005297903680112683
91279766 -0.00025924023151106584 0.0053199595835477795
91309528 -0.00012221148878136748 0.005354937595663874
91339290 -0.00019194996978030694 0.005383257672825921
91369052 -0.0001814889982126611 0.005415635241667394
91398814 -0.0003602954376050015 0.005415019116341603
91428576 -0.00023269541801489382 0.005397836693059053
91458338 -0.00018822637214997275 0.005372603327001238
91488100 -0.00021939497883927944 0.005345019647669578
91517862 -0.00021438910428344987 0.0053204895086894745
91547624 -0.0001696585785886727 0.005295435162797257
91577386 -0.00016358785029607948 0.005271882894309162
91607148 -0.00019276814744094366 0.005240877995145754
91636910 -0.00018476570153281015 0.005217926788541616
91666672 -0.0001431927108988633 0.00519558262038313
91696434 -0.00010063754720753282 0.005200670621887424
91726196 -0.00013729940209136434 0.005217455907862099
91755958 8.587684866830463e-05 0.005217400453547328
91785720 0.0001270339130945815 0.0052213184226625915
91815482 0.00023910243498808558 0.005223536479956218
91845244 0.000314592428239152 0.005222710324627427
91875006 0.00035876633445755204 0.005222349954829729
91904768 0.0003366732124008879 0.005220742855841548
91934530 0.0005187273678448401 0.005213616339580148
91964292 0.0005494783359798035 0.005222778282091469
91994054 0.0005905160261848798 0.0052402353684746035
92023816 0.000466089478292331 0.005261115863662984
92053578 0.000574062387838257 0.005277759847595607
92083340 0.0005812196874339685 0.005295989643827145
92113102 0.0006200224918766108 0.005313200996596752
92142864 0.0005984305999569445 0.005330681155228835
92172626 0.0006399431335410017 0.005350345359149087
92202388 0.0005156967005043534 0.005370470044338212
92232150 0.0006152073090114705 0.005364221370767952
92261912 0.0005032379682204333 0.005311494784722563
92291674 0.0006162056256784399 0.005256837874240207
92321436 0.0005706254334980339 0.005207714400377558
92351198 0.0005873383724853634 0.005159146261617881
92380960 0.0005447358934578953 0.005104316172373736
92410722 0.0005327417777170788 0.005053335001469229
92440484 0.0005501541366885992 0.005002403758589896
92470246 0.0005404449246513945 0.004953343661631008
92500008 0.0005052424458681684 0.004901702468038762
92529770 0.0005118097674743229 0.004919921634542697
92559532 0.0005462003771926986 0.004934032626729346
92589294 0.0005246142398471793 0.00494982971127373
92619056 0.0005589012386566116 0.004964079840636576
92648818 0.0005668158961235763 0.004978731553986662
92678580 0.0005442208669569516 0.004995438688520051
92708342 0.0005783487346471286 0.005011113648937855
92738104 0.0005848225031404312 0.005022568009255787
92767866 0.00056838446039732 0.005036341981468965
92797628 0.0005990556586841231 0.005036702460363789
92827390 0.000634746061017738 0.005038311075852952
92857152 0.0006792467200006888 0.005038179404618203
92886914 0.0006393446458115487 0.00503280492640669
92916676 0.0007842518250979451 0.005033847035466617
92946438 0.0008014178033504635 0.005026109623900274
92976200 0.0008468310907872788 0.005017312586900733
93005962 0.0008121063208514823 0.005015020522440735
93035724 0.0009303830436351828 0.005008885109363449
93065486 0.0009144111313717496 0.0049932226745527004
93095248 0.0010981363882648096 0.004966696174354539
93125010 0.0011601277508192223 0.004936098842933169
93154772 0.0012651562857959363 0.004905142907362876
93184534 0.0012581935976517249 0.004873020654542826
93214296 0.0013640410581391795 0.004849643208116753
93244058 0.0014239398395287858 0.004791014455409001
93273820 0.0015753486444271183 0.004748494655380247
93303582 0.0016327608094452986 0.00470996622608268
93333344 0.0017567203239863707 0.004650869449724327
93363106 0.0017266321226264752 0.004658198334343839
93392868 0.0016730341172786962 0.004663338124294971
93422630 0.0016426924528329737 0.004663975368918237
93452392 0.0016302924601259454 0.004665410782865228
93482154 0.0015788329502158264 0.004663907907958579
93511916 0.0015651737899095909 0.004661921378425048
93541678 0.0015388782136965275 0.004654502436424087
93571440 0.0014859534189066994 0.0046511671613997845
93601202 0.0014748068419399188 0.004640511284040675
93630964 0.001510654964188882 0.004617860832562148
93660726 0.0015593608709552947 0.004583594117603104
93690488 0.0016441497092583332 0.00454449284975256
93720250 0.001692223958192018 0.004507213709880887
93750012 0.0017639132621123505 0.0044696774308518716
93779774 0.0018517839547242973 0.004412594468551496
93809536 0.001841427883492795 0.004387641840491408
93839298 0.0019598147423165128 0.004334707953055422
93869060 0.002028407563792601 0.004288877633406029
93898822 0.002097403024047464 0.004236666780125144
93928584 0.0021074386963040115 0.004191070003081284
93958346 0.002155013488280906 0.004139790970703772
93988108 0.0021231238130918263 0.004100533722116362
94017870 0.0022026241632963533 0.004043042983699689
94047632 0.002181340499033622 0.003999734004636106
94077394 0.0022696857679439966 0.003930929427794727
94107156 0.0022862935352602463 0.0038785071824618796
94136918 0.0023265012152856816 0.0038192815223346815
94166680 0.0023439369765786973 0.0037665935246509004
94196442 0.0024571967682584877 0.003925155870404322
94226204 0.0025319173726420408 0.004108161624709172
94255966 0.002715484732782012 0.00429253549684997
94285728 0.002830204488841669 0.004525416888498461
94315490 0.0029753164842511105 0.004770178835257033
94345252 0.003143292497975642 0.005055141914282347
94375014 0.003282589765911417 0.00539560793172165
94404776 0.0034595869329997466 0.005778891749310397
94434538 0.0036178720457281026 0.0062412987107161345
94464300 0.00358307682659607 0.005944134694952936
94494062 0.0034989553704177384 0.005331555182471332
94523824 0.0033908279517394797 0.004807099485675578
94553586 0.003264466497168584 0.004356295819469437
94583348 0.0031736514033145684 0.003946350565757899
94613110 0.0030625209036144727 0.003595626002646854
94642872 0.0029684644801108344 0.0032734493878678185
94672634 0.0028814014893784067 0.002986925077330697
94702396 0.002787694018345415 0.0027208736748666803
94732158 0.002724571471768036 0.0025334473381207505
94761920 0.0027292231633236803 0.002422027795259153
94791682 0.0027130223252980197 0.002324527086991667
94821444 0.0027399032522017587 0.0022026610452117396
94851206 0.002726140577040011 0.0021042374437024473
94880968 0.0027493001290216004 0.00197001392595634
94910730 0.002739500024910731 0.001855856599335194
94940492 0.002747416110191239 0.0017308013718849013
94970254 0.002715492625158999 0.0016293500003604895
95000016 0.002720900805260832 0.0015063171355237121
95029778 0.002725376227629659 0.0014229277640523772
95059540 0.002742001391760281 0.0013214632286222537
95089302 0.0027569952882512227 0.0012231756170194336
95119064 0.002766450038763081 0.0011212940224669852
95148826 0.002771948969917817 0.0010322417804462822
95178588 0.0027698081708444253 0.0009171671731827585
95208350 0.0027745012207210503 0.0008101594247767335
95238112 0.002765256313974895 0.0006802428782817908
95267874 0.0027667175402725347 0.0005615102575435663
95297636 0.002734726811047304 0.0004449507393206917
95327398 0.0027124764359550708 0.0003187070771099152
95357160 0.0026784984257888105 0.00016693099783801854
95386922 0.002634933906005166 4.10169239962019e-05
95416684 0.0025926670677177796 -0.0001275164611966277
95446446 0.002546598052410712 -0.0002464650826389075
95476208 0.0024880764674854064 -0.00042176423692152015
95505970 0.0024278905034208803 -0.0005506669416747953
95535732 0.002362089982495198 -0.0007295781511959524
95565494 0.0022789298677358886 -0.000887791337651853
95595256 0.002196066020027302 -0.0010355996931968121
95625018 0.0020952943061558213 -0.0012097693067327068
95654780 0.0019998034080134174 -0.0013769309824860237
95684542 0.001871806486199931 -0.0015296088340402757
95714304 0.0017490917302043245 -0.0016914590573657285
95744066 0.0016099477375503871 -0.0018516845558962456
95773828 0.001463705494535579 -0.0020026089126376585
95803590 0.0013024641121328776 -0.002143448655432111
95833352 0.0011525161750429215 -0.0022812212728299773
95863114 0.000955889796212257 -0.002387901819186055
95892876 0.0007664389716381373 -0.0024853697158948693
95922638 0.0005867884563376341 -0.0025837701527596027
95952400 0.00038920599207395564 -0.002653870520501875
95982162 0.00020200661387206523 -0.002747795190961989
96011924 0.0005071272178684686 -0.0029936955067401167
96041686 -0.0003650626158738518 -0.0028587016939475318
96071448 -0.0005785270242591279 -0.002872623784772126
96101210 -0.000778108543103809 -0.0028994653524943128
96130972 -0.00027487873400976285 -0.0033115864683407855
96160734 -0.0012370450455596652 -0.0029352916041318427
96190496 -0.0013064325088749332 -0.0030860484415952865
96220258 -0.0016132425308878248 -0.0030174173936649974
96250020 -0.001817446083817431 -0.0029973587824407804
96279782 -0.002033747150844032 -0.0030366917074155027
96309544 -0.0022531036515484547 -0.003007297919427389
96339306 -0.0024580343905792035 -0.00299021545103823
96369068 -0.0026929630215368934 -0.0029466837769556837
96398830 -0.0028877833741167056 -0.0028976029721629075
96428592 -0.0031303019639083917 -0.002833337861500147
96458354 -0.003329861813620298 -0.0027636209999227727
96488116 -0.003817957597083183 -0.001719957700954143
96517878 -0.003767844827370614 -0.0025728021672791145
96547640 -0.003961831779857949 -0.002454850207926462
96577402 -0.0041565805022392354 -0.002183221344291291
96607164 -0.004353506390107658 -0.002243753130093894
96636926 -0.004546458358396981 -0.00096484376730859
96666688 -0.004702693539037777 -0.0020118864598000293
96696450 -0.004817338985759348 -0.001851217293029762
96726212 -0.004894193331914071 -0.0017653152955878404
96755974 -0.004909967991746309 -0.0029346971087585256
96785736 -0.005054880044381924 -0.0014977665742444348
96815498 -0.005140377668646814 -0.0026794217670741286
96845260 -0.0051916118179881595 -0.0012432550188496974
96875022 -0.005238948803031793 -0.0011234804472327004
96904784 -0.005300271048798562 -0.0010401683226767592
96934546 -0.005309386243156073 -0.0008180897816455006
96964308 -0.00538873371674603 -0.0007767501952529908
96994070 -0.005455870453613637 -0.0006953596259634143
97023832 -0.005104540989370126 0.00044436012156404456
97053594 -0.005595109291618156 -0.0005028055522922711
97083356 -0.005656273792326378 -0.00044404991607532857
97113118 -0.006058210949712616 -0.0015741836109912579
97142880 -0.005756615006265275 -0.00026169203462994366
97172642 -0.005277839590849983 0.0008096323556579742
97202404 -0.005856455269784581 -0.00013147197731079507
97232166 -0.0058725464233587606 -1.0596247379276802e-05
97261928 -0.005930504956397756 8.800909231715916e-05
97291690 -0.005940954960728029 0.00024924346092553934
97321452 -0.005980556243986594 0.00039060037435570226
97351214 -0.006026865821522254 0.00048711664881387134
97380976 -0.00605852243625081 0.0006240378758154693
97410738 -0.006047792343409354 0.000763427715311391
97440500 -0.006062624432975382 0.000887319707470714
97470262 -0.005387550988623826 0.0018361303564530215
97500024 -0.006100205781174312 0.0011255711718108899
97529786 -0.006152043854282701 0.001208270411217182
97559548 -0.005401477225471701 0.0021270548370594874
97589310 -0.006161631827693803 0.0014588393738390855
97619072 -0.0060916153149128335 0.0016605245671911116
97648834 -0.006223373067920375 0.0016411688254890414
97678596 -0.0062048779898358575 0.0017778706794309028
97708358 -0.005423083982526776 0.0026000564183557063
97738120 -0.006226879221321161 0.0019891480897213706
97767882 -0.006236216536829819 0.0020900450838220535
97797644 -0.00701257343557713 0.0014126901503558522
97827406 -0.006119052120623113 0.0023209200058341923
97857168 -0.005992300794977825 0.0024697910874370986
97886930 -0.005910246706635358 0.002589821631247522
97916692 -0.0066254019952946335 0.0020435410628137727
97946454 -0.005716080097866457 0.002811400276841696
97976216 -0.006416901219872589 0.002322353332501519
98005978 -0.004778692657477091 0.0034851990957256024
98035740 -0.005434363135664194 0.003105472281080991
98065502 -0.0054388284218379905 0.0031368336453846206
98095264 -0.0055104680012966045 0.0031733790847878187
98125026 -0.005557414445432901 0.00321620341116157
98154788 -0.0048477955978625635 0.0037013137429966056
98184550 -0.005699302800816105 0.003276203014472903
98214312 -0.005785156476683129 0.003296421728316054
98244074 -0.005048370062572607 0.0037768753516647866
98273836 -0.0059949956929317375 0.0033121264763630175
98303598 -0.0060322857212297635 0.0033450176766104105
98333360 -0.006107150600349808 0.0033486428633137466
98363122 -0.006124420701542598 0.003347559197546423
98392884 -0.0060431076849657 0.0033922579232144937
98422646 -0.006055823377651132 0.0033682787656451013
98452408 -0.006030605229719378 0.003379626606117831
98482170 -0.0059356998270411136 0.0034285677738205575
98511932 -0.005957356216053453 0.0033969057153926414
98541694 -0.005048439448103429 0.0038696411173167722
98571456 -0.005838058549896696 0.003441886062405316
98601218 -0.0066408901507024306 0.002974127997131797
98630980 -0.005758415446084441 0.0035042787027281816
98660742 -0.005706365248264267 0.003585335984168164
98690504 -0.004847830485746062 0.004051254079597834
98720266 -0.006422184637757531 0.0033118346424555922
98750028 -0.0055415149260767994 0.0038042417218171016
98779790 -0.005484707471654302 0.003884819441584897
98809552 -0.005484897723007669 0.003926175215328235
98839314 -0.005377481774379629 0.004016468976849554
98869076 -0.005373351329426959 0.004058576112891386
98898838 -0.006091480933340767 0.0037866211569844697
98928600 -0.00528909707540089 0.0041676966876163365
98958362 -0.006103287968868193 0.0038637253315411003
98988124 -0.005352253039149541 0.004216506340546435
99017886 -0.00531453116951827 0.0042784315311902256
99047648 -0.00537237811225362 0.004270516477373582
99077410 -0.0053161976635444355 0.004328198590179682
99107172 -0.005324208002413707 0.004355819780428483
99136934 -0.005392134633449772 0.004360149073452291
99166696 -0.005349465951605929 0.004400946915771677
99196458 -0.00549477302548398 0.004387910304183247
99226220 -0.00542655621074673 0.004384058807737877
99255982 -0.005374638007958709 0.004363222537615547
99285744 -0.005308459419051178 0.00437120294954377
99315506 -0.00535790276255126 0.004337814282674447
99345268 -0.005391561473517986 0.004322073964511911
99375030 -0.005426311598914213 0.004348205318273701
99404792 -0.00532559626260358 0.004300153457786705
99434554 -0.005311260533168484 0.004292627641345885
99464316 -0.005189808514018224 0.004361690261576516
99494078 -0.0051634693435582526 0.004423868961487717
99523840 -0.005007280663743141 0.00451542149907521
99553602 -0.00491378592742781 0.004588966931674471
99583364 -0.005524150122848375 0.004424747170462394
99613126 -0.004011737920806175 0.004938691014801662
99642888 -0.004642965476342414 0.004792569030152988
99672650 -0.004548933794429924 0.004861796822826303
99702412 -0.005116260527412848 0.004729805334318525
99732174 -0.0044110721247808985 0.004947724144690839
99761936 -0.004264684918782575 0.004974218009084057
99791698 -0.0045455037988943355 0.004885892275948061
99821460 -0.004523784066277937 0.004880255617344763
99851222 -0.004619146552038292 0.004838360520170159
99880984 -0.00541739456544665 0.004600489326358699
99910746 -0.004627567508610197 0.00479734857848502
99940508 -0.005342503377413245 0.004573991321319088
99970270 -0.004698429115629397 0.0047342313240851565
100000032 -0.004734357174439638 0.004719007191815632
100029794 -0.004710303821330252 0.004729081243258033
100059556 -0.004681396257274896 0.0047458027696750315
100089318 -0.0046702140675102585 0.004761466739874329
100119080 -0.004648302500023832 0.004779508553967562
100148842 -0.004621438157181929 0.0047878765615231855
100178604 -0.004606308880509127 0.004807653998607825
100208366 -0.004584205903888841 0.004822606607596332
100238128 -0.00455923236995383 0.0048471275503842665
100267890 -0.004540731385791762 0.00485846765424983
100297652 -0.0045363120293987905 0.00487103898142292
100327414 -0.004525594789037292 0.004878481538987404
100357176 -0.004528848751348079 0.004885326038591506
100386938 -0.004517688659922067 0.004897316553657845
100416700 -0.004518790219583733 0.004906408145893784
100446462 -0.004522449499096859 0.0049180717068874995
100476224 -0.004517116118036572 0.004917294945939052
100505986 -0.004508768417739069 0.004932370481107588
100535748 -0.004511457769636893 0.004933969039957252
100565510 -0.004526155481280079 0.004950059817567286
100595272 -0.004567515127877414 0.0049954625381925894
100625034 -0.004614031310395379 0.005032460462882171
100654796 -0.004667513808110311 0.005079762770103667
100684558 -0.004707726183774773 0.005113124307073368
100714320 -0.004758182731460969 0.005153541204527935
100744082 -0.004815816948024247 0.0051903783272365
100773844 -0.004864563848809395 0.005234446944626319
100803606 -0.0049198751938501475 0.005281562344911045
100833368 -0.0049781028864187855 0.005317811933058151
100863130 -0.0049203223709937925 0.005318565467268231
100892892 -0.004869459551733361 0.0053086213010049
100922654 -0.0048090810213891385 0.005300974635317193
100952416 -0.0047410831731975935 0.0053068383118732776
100982178 -0.004684164806994125 0.0052924706957917095
101011940 -0.004635216606847362 0.005292353093090692
101041702 -0.004582032928562523 0.005284595141211911
101071464 -0.004525347307628643 0.005279865355733411
101101226 -0.004475200319207129 0.005273048945440815
101130988 -0.004458709636158101 0.005274841190543278
101160750 -0.004460185058266748 0.005265201926816309
101190512 -0.004451325625775373 0.005261847928062842
101220274 -0.004457714557596037 0.005257985408742763
101250036 -0.0044566519536844785 0.005260388090356101
101279798 -0.00445963743224393 0.005249090722155514
101309560 -0.004462656656672654 0.005244993003583961
101339322 -0.0044595559846833605 0.005247782542124772
101369084 -0.004459627414881745 0.005244454513504452
101398846 -0.004441907054646429 0.005253140580632805
101428608 -0.004380566294855954 0.0053221842314730376
101458370 -0.004321104321838472 0.005392418681827625
101488132 -0.004259500640150309 0.005455206063832393
101517894 -0.004198462315604326 0.005518994674173255
101547656 -0.004125717198259319 0.005574557129212592
101577418 -0.004061428886472823 0.005639192003291536
101607180 -0.003989743460890422 0.005697153542447614
101636942 -0.0039247127573697966 0.005757110119464746
101666704 -0.0038555885290276607 0.0058153084472400965
101696466 -0.003945358700834318 0.005763101008899143
101726228 -0.004032794711129616 0.005712234489534214
101755990 -0.004119582155395688 0.005651810687657939
101785752 -0.0042123254701581575 0.005591944534818186
101815514 -0.004292709083298124 0.005538058100010649
101845276 -0.004375580361940208 0.005464153363524451
101875038 -0.004453163691998768 0.005395917813253792
101904800 -0.004529142980811013 0.0053210498981793855
101934562 -0.004609732392030013 0.005247287927183296
101964324 -0.004572219060536983 0.005256391571359962
101994086 -0.004484541615153741 0.0053094524602099995
102023848 -0.004400913044555681 0.00537440752342366
102053610 -0.004310886878240012 0.005424855337948393
102083372 -0.004221257045445961 0.005466912515180364
102113134 -0.004132460629022781 0.0055133847002101855
102142896 -0.004044460074731358 0.0055592280356080714
102172658 -0.003951029380333185 0.005595600589428914
102202420 -0.0038627800200593154 0.005631269783401706
102232182 -0.003956913817836623 0.005702267410280833
102261944 -0.003999988779952762 0.0057008292139534384
102291706 -0.004001194342314285 0.005714548310637842
102321468 -0.004091382075120105 0.005737877605481862
102351230 -0.004192130422733983 0.005751773036621728
102380992 -0.004369120123364147 0.005790481406176601
102410754 -0.0042920527487696255 0.005783523386105052
102440516 -0.004480803235738406 0.00581242605515026
102470278 -0.004582762991301618 0.0058201323943376125
102500040 -0.004731141475824791 0.005837463618722031
102529802 -0.0045848335599147005 0.005854458498969289
102559564 -0.004613599244456305 0.005878704476087185
102589326 -0.004517332297893592 0.005894442079184712
102619088 -0.0044560030231140255 0.0059103460754097595
102648850 -0.00439824095131967 0.005926597291481877
102678612 -0.004345841561495074 0.00594238807816861
102708374 -0.004288723687991329 0.005958859214422527
102738136 -0.0042261436964332755 0.005972525663117744
102767898 -0.0041717296707772114 0.0059906368404590744
102797660 -0.004149415355782505 0.0059746363016118745
102827422 -0.00413047373159448 0.005943526659641326
102857184 -0.004117911153375898 0.005917604814760826
102886946 -0.0041023369048223905 0.005893264228642348
102916708 -0.004131328383196492 0.005863496698119478
102946470 -0.0040784534928096 0.005832693932295393
102976232 -0.004060206094718517 0.0058010092986485
103005994 -0.00404075520668305 0.005777026649584652
103035756 -0.0040266968755035765 0.005748955719592712
103065518 -0.004016108460254507 0.005741198527983325
103095280 -0.004024323782385596 0.005769528372047887
103125042 -0.0040259175632338575 0.00579092154791514
103154804 -0.004029867420513795 0.005820257603666243
103184566 -0.004032318498733211 0.005842649595610174
103214328 -0.00403074886566939 0.005871323585366044
103244090 -0.004033335712167598 0.005899649544903117
103273852 -0.004030150331303949 0.005927188762424567
103303614 -0.00403567083995954 0.005954589698687686
103333376 -0.004040616373095365 0.005984883498558013
103363138 -0.003951879128831908 0.005983430979872482
103392900 -0.003865307889115985 0.005979499481557098
103422662 -0.0037673602484880877 0.0059772332418924524
103452424 -0.0036818843312979555 0.005965560049794751
103482186 -0.003595754910768131 0.005959898058818121
103511948 -0.0035102005930574636 0.005953603900104591
103541710 -0.003430260551741788 0.005938856685823529
103571472 -0.0033514721270286015 0.005932177049889929
103601234 -0.0032633567766426497 0.00591948178013933
103630996 -0.0032720314132670546 0.0059089544803346316
103660758 -0.0033180238233292063 0.005905582683989871
103690520 -0.003364548818583011 0.005892918333406485
103720282 -0.0034066472056758688 0.005889610031517019
103750044 -0.0034590063123835857 0.005882642429186303
103779806 -0.003499866158509174 0.005869852443376407
103809568 -0.003550826270889135 0.005862098571051442
103839330 -0.0035976896952652966 0.005846172166255195
103869092 -0.0036457474480247037 0.005840358803706926
103898854 -0.003691863032894641 0.005832706475670465
103928616 -0.003728634007396952 0.005857207380182498
103958378 -0.0037652204706740853 0.005877106657612063
103988140 -0.003803173022365031 0.005897482412361408
104017902 -0.003847006690432265 0.005925339614054817
104047664 -0.003887719867858916 0.005939424944732819
104077426 -0.003929942669085815 0.0059638816700763615
104107188 -0.0039805522308947435 0.0059866486531344135
104136950 -0.004020513704767543 0.006007520338214415
104166712 -0.004060051138268674 0.006027417430643716
104196474 -0.004054173537110953 0.006071593215420132
104226236 -0.004040701546336783 0.0061202195983965325
104255998 -0.0040305380408964244 0.006158718706897231
104285760 -0.004013141229947972 0.006205616125657847
104315522 -0.0039996599404386254 0.006247263024567332
104345284 -0.003985001447302591 0.0062963776934695905
104375046 -0.003980537527730559 0.006338066059137659
104404808 -0.00396512652512197 0.00638674922407558
104434570 -0.003946143251567004 0.0064331607276240455
104464332 -0.003937953209815428 0.006410176268609472
104494094 -0.003931292882370353 0.006346326408831196
104523856 -0.003923099606240273 0.006292757826942007
104553618 -0.00391020263879464 0.006234843892908153
104583380 -0.0038991996346601663 0.0061776701655944346
104613142 -0.0038930234963239965 0.006124880711580981
104642904 -0.003876498106514929 0.006069719025626818
104672666 -0.003869175295828766 0.006013788915517436
104702428 -0.0038556448046977334 0.005960952922495078
104732190 -0.0038436760753765907 0.005950894333044482
104761952 -0.0038268005968483984 0.006022744372854561
104791714 -0.003804416616497161 0.0060911104602792525
104821476 -0.003787823587080184 0.006164857747689462
104851238 -0.003765845091422604 0.006238395744789522
104881000 -0.0037406565256098874 0.006311175712341823
104910762 -0.0037208305385774787 0.006381616431998522
104940524 -0.0036951743184012458 0.006461162599632737
104970286 -0.0036695708132082235 0.006535160811704899
105000048 -0.0036506659858206265 0.006618279067575397
