# HZ S RI R 50
90000000 -0.0005041933629779299 0.0053642023415132935
90029762 -0.0004712131937959181 0.005397532707860858
90059524 -0.0006993443331276258 0.005417911834733558
90089286 -0.0005639312435317017 0.005455772575256151
90119048 -0.0007430079915756516 0.0054767676696516835
90148810 -0.0006098935290743807 0.005519250535244848
90178572 -0.0006324494278323133 0.005549049225217874
90208334 -0.0006061210565202126 0.005577113052419998
90238096 -0.000836853357464905 0.005603752461645921
90267858 -0.0007070703028228712 0.00564240521067024
90297620 -0.0006936861060428869 0.005621021219136572
90327382 -0.0006163109356671514 0.0055801637499057685
90357144 -0.0006929044599658829 0.005531582201321548
90386906 -0.0005640191830876285 0.005490352431916767
90416668 -0.0007342810850142845 0.00542801035713681
90446430 -0.0005627884815213757 0.005396882769347025
90476192 -0.0004865864037981994 0.005352787742423235
90505954 -0.00046175544722180977 0.005310846762193533
90535716 -0.00048576580094958414 0.005265056414288938
90565478 -0.00040845284642144656 0.005241317659866402
90595240 -0.0005140854524537191 0.0052545533725609364
90625002 -0.000376960060610455 0.005261736142304696
90654764 -0.0002914678438425287 0.005271250766298057
90684526 -0.0002508733847266986 0.005283717065235119
90714288 -0.00025666229104636903 0.00529031778378633
90744050 -0.00021610445742163093 0.005300146699200873
90773812 -0.00012764082614185771 0.005311143533294349
90803574 -0.0001326295278314656 0.005316793174002105
90833336 -4.551659071045497e-05 0.005324588125982751
90863098 -2.192126944020427e-05 0.0052960545056497
90892860 -3.929897149432658e-05 0.005272341283740027
90922622 -9.179216791276205e-05 0.005255945925032
90952384 5.4023117340351304e-05 0.005218614054921462
90982146 3.5189368332442446e-05 0.005190920225592333
91011908 9.879307096866924e-05 0.005166221611453024
91041670 8.473012883667121e-05 0.005140716259993916
91071432 0.00011123536259338492 0.005113131716723566
91101194 1.4621853162780435e-05 0.005087051621839218
91130956 0.0001688329588683126 0.005099551433998981
91160718 0.00010779846352455901 0.005125944895325938
91190480 8.608167441284988e-05 0.005156832024809316
91220242 -5.5778387232129595e-05 0.005179858577647369
91250004 4.065160597073911e-05 0.005210807536897837
91279766 -0.00010067142096651478 0.005238118550086656
91309528 3.2668703011898356e-05 0.005268196641800386
91339290 -3.083567064810319e-05 0.005295320629406888
91369052 -1.7591530376945607e-05 0.005324799217035683
91398814 -0.00018950097364724882 0.005326859274674587
91428576 -6.491509844346566e-05 0.0053075733528220445
91458338 -1.7522112345110112e-05 0.00528301087418304
91488100 -4.7777085542973726e-05 0.0052536074888730345
91517862 -3.886016019794005e-05 0.005223119118668295
91547624 5.683239924748221e-06 0.005201283608561868
91577386 1.3641745100549999e-05 0.0051731607974327765
91607148 -1.5346783019352376e-05 0.005146071776124366
91636910 -6.182789715940358e-06 0.005119284853271035
91666672 3.525122448796231e-05 0.005096426466622153
91696434 7.827318610431309e-05 0.005095616331550265
91726196 0.00019231584204766172 0.005102034784689817
91755958 0.0002672205407531132 0.005103217839529291
91785720 0.00031133053103051206 0.005103742406836092
91815482 0.0004202851308316058 0.005100618995828279
91845244 0.0004992568266425097 0.00509574311744922
91875006 0.0005473679637765576 0.005087659485430779
91904768 0.0005253343126861071 0.005082767173459604
91934530 0.000707654270818939 0.005069533494479387
91964292 0.0007404066743440567 0.005073813499100782
91994054 0.0007833773887166625 0.005086855243342702
92023816 0.0006617178094346991 0.005107332212668309
92053578 0.0007735526910371768 0.005113926090029666
92083340 0.000759242907672688 0.005141517004197328
92113102 0.0008504526817882598 0.005144388723411529
92142864 0.0008071064631984006 0.005161299054939612
92172626 0.0008504307883740451 0.0051788268226343305
92202388 0.0007370355380419796 0.005192469991724974
92232150 0.0008355035789097352 0.0051812578360787105
92261912 0.0007271307810156364 0.005131954972566346
92291674 0.0008358835789411959 0.005074979128692335
92321436 0.0007931974021301573 0.00502424033463951
92351198 0.0008093340213993625 0.004969389824246115
92380960 0.0007729594106360074 0.004914784313181404
92410722 0.0007569031593464879 0.004865212609851051
92440484 0.0007746358844008817 0.004814087907201433
92470246 0.0007719775092102633 0.004762719536649322
92500008 0.0007401445172401055 0.004703536216454155
92529770 0.0007439199091101899 0.004717662708945357
92559532 0.0007864351052663972 0.004727759711409448
92589294 0.0007676375743887729 0.004738712438734915
92619056 0.0008054909186619838 0.004750441405803635
92648818 0.0008181957088760694 0.004758054650832558
92678580 0.0008026742503032448 0.004768323436990097
92708342 0.0008365554270323261 0.004777015223575163
92738104 0.0008494391809581737 0.004784187439045918
92767866 0.0008394297063084827 0.004792775996265363
92797628 0.0008953877686533892 0.004790698957689022
92827390 0.0009156345587922609 0.004773721875403117
92857152 0.000956232739623103 0.004770519620955101
92886914 0.0009233103265358819 0.004757210072403792
92916676 0.0010685916729527972 0.004745848915458393
92946438 0.0010839024082503893 0.0047319678379165
92976200 0.001015916630772306 0.004729161179202778
93005962 0.0011128693323038381 0.004696777441888528
93035724 0.0012282373316201793 0.004682313138223457
93065486 0.0012143733613137558 0.004655949541903379
93095248 0.0013904552715806756 0.0046161213359775565
93125010 0.0014510757098422822 0.0045736403947531905
93154772 0.0015556590721602147 0.00452468068555375
93184534 0.0015457065807303284 0.004482834215657387
93214296 0.0016961556351033995 0.004427436586520072
93244058 0.001706863704135006 0.004382258966821614
93273820 0.0018536143900563433 0.00431613366463694
93303582 0.001972873645579225 0.004236466025011282
93333344 0.002027085448254727 0.004189267014184829
93363106 0.001975789216357521 0.004187765064826866
93392868 0.0019517977433045864 0.004183833350547279
93422630 0.0019312721607141873 0.00417955044971659
93452392 0.001969559189989631 0.004145912213268645
93482154 0.001875891559284462 0.0041555777471818
93511916 0.0018775706819295055 0.004144568094095888
93541678 0.001846145048474202 0.004128550113209208
93571440 0.001806727786770815 0.004115435363137201
93601202 0.0018004334773246695 0.0040932514304634635
93630964 0.0018371637555084747 0.0040545770296416045
93660726 0.0019052143636118742 0.003994925269050887
93690488 0.001962938841182441 0.003946163634702173
93720250 0.00200382144996718 0.0038834303739575084
93750012 0.002067717028674389 0.003829814692468326
93779774 0.0021398130240475382 0.0037620690927468573
93809536 0.0021392076990391835 0.0037163843765562234
93839298 0.0022434149422767423 0.0036324051213319454
93869060 0.002299599030547724 0.0035606571379968115
93898822 0.002359144588439373 0.0034843209477022673
93928584 0.0023664274826575927 0.0034201504282310017
93958346 0.0024030036550942956 0.0033535854914733413
93988108 0.0023666159175742075 0.0032993926692882116
94017870 0.0024329580082477556 0.00321502873204272
94047632 0.002409067160561351 0.0031578359636950603
94077394 0.0024852599342116057 0.0030636504072745455
94107156 0.002487246730774137 0.0029864014870274883
94136918 0.00251591040540148 0.0029070282225168317
94166680 0.002525639913152972 0.002833938541648372
94196442 0.002640561146144014 0.0029220062684395965
94226204 0.002732325284797029 0.0030387047235507217
94255966 0.002913338289162572 0.0031268569307966823
94285728 0.0030409185696235333 0.0032571623225005762
94315490 0.003202292353154605 0.0033980117541425442
94345252 0.003382871913935247 0.003556858461055144
94375014 0.003545278182542393 0.0037610785554342925
94404776 0.0037440723044496068 0.003977796422191551
94434538 0.003947817554424558 0.0042509205415609975
94464300 0.0038743111049808743 0.0039642301014908765
94494062 0.0036806633345248378 0.003445316892528172
94523824 0.003494698850737036 0.003004592112732578
94553586 0.0033026674349383367 0.0026285314014842134
94583348 0.003148956090962796 0.002288600552269331
94613110 0.0029821999822517765 0.0019972443472212682
94642872 0.0028309530903519627 0.0017333458786434872
94672634 0.0026876624345127994 0.0014906650714918315
94702396 0.002559011546625734 0.0012740579828406534
94732158 0.0024572350697235792 0.0011046882534710399
94761920 0.0024169093177513995 0.0009772201468128557
94791682 0.002369873363318207 0.0008796199023626417
94821444 0.00233175777314336 0.0007291251880854548
94851206 0.0022766501363751645 0.000617241983741914
94880968 0.0022265550409275342 0.00047371316563307904
94910730 0.002166581587343094 0.00036341724744140097
94940492 0.002103998128238712 0.00024377906139891998
94970254 0.0020343703668840776 0.00014020255733009939
95000016 0.0019724004772442992 1.0406612896150894e-05
95029778 0.0019249148469236436 -9.439249868468785e-05
95059540 0.0018541512824375606 -0.00020783013427677502
95089302 0.0018082107181214633 -0.00030485312657043236
95119064 0.001721327234967655 -0.0004315550928586921
95148826 0.0016721820177458373 -0.0005459676514530332
95178588 0.001578309493782873 -0.0006529518391576223
95208350 0.0014942479804900342 -0.0007707860551398808
95238112 0.0014006416526704535 -0.000888130049475217
95267874 0.001313550187351868 -0.00098649587619323
95297636 0.0012024827795439664 -0.0011035573781038226
95327398 0.0010910404928890845 -0.001204324117326232
95357160 0.0009644585270216352 -0.001312176774405733
95386922 0.0008367055208429394 -0.001415819353197628
95416684 0.0006968685713540027 -0.0015155063861504274
95446446 0.0005723104419907877 -0.0015985226603550714
95476208 0.000424589761517121 -0.0017004076750076359
95505970 0.00027831933724469426 -0.0017799896890357055
95535732 0.00011662098164452531 -0.0018499869595533537
95565494 -4.638637605227258e-05 -0.001918227007498039
95595256 -0.00022392527663687455 -0.001977956338694825
95625018 -0.00039815640097040693 -0.002046309037801229
95654780 -0.0005689441440184309 -0.00210860253885015
95684542 -0.0007494177589926021 -0.0021346192470125445
95714304 -0.0009404977806485097 -0.0021553228011233047
95744066 -0.0011278002543246466 -0.002180258696165777
95773828 -0.0012948049646638656 -0.0021944962117313596
95803590 -0.0014890604831420112 -0.002198418552210186
95833352 -0.0016822397974561565 -0.002188338240420171
95863114 -0.001841718807445754 -0.002148159390003126
95892876 -0.002003076039640804 -0.002117402301413294
95922638 -0.002162842736539696 -0.00206621657523773
95952400 -0.002324299046837692 -0.0020278029740627436
95982162 -0.0024699707758841626 -0.0019764295632650176
96011924 -0.0022490152466531606 -0.0026885459199498143
96041686 -0.002766586677825284 -0.0018274475467743724
96071448 -0.0028947569913214447 -0.0017151699190793655
96101210 -0.0030137019529218744 -0.0016806261089485884
96130972 -0.002883680416038351 -0.002511186560847557
96160734 -0.0032980326281364792 -0.0015603915278672898
96190496 -0.0034397720542378783 -0.0014904485159801242
96220258 -0.003576144943555944 -0.0014097674242646626
96250020 -0.0037042097420512325 -0.0013440967427021575
96279782 -0.0038175212143745575 -0.0013329997538891855
96309544 -0.0039423388971298835 -0.0011350076546720142
96339306 -0.004065905029252967 -0.0010884203619468207
96369068 -0.004172441724843492 -0.0010349240011164997
96398830 -0.004291028926256545 -0.0009324948541116341
96428592 -0.004418456558101558 -0.0008148970566345209
96458354 -0.004525790360236651 -0.0007141706002756001
96488116 -0.004373514739992721 0.00031049420468338913
96517878 -0.004724052459601288 -0.0004759151014587329
96547640 -0.0048167574306863 -0.0003612209078045174
96577402 -0.004914344081162125 -0.0002597723154644713
96607164 -0.004986903070575274 -0.00011989949869724902
96636926 -0.004657855936639455 0.0009184560467353495
96666688 -0.005157508131142152 0.0001204873886102834
96696450 -0.005160583254645804 0.00020733847816173858
96726212 -0.005185102112128281 0.00027988550234886857
96755974 -0.005595560602723227 -0.0006880541754654805
96785736 -0.005191232850399365 0.0004465837938242606
96815498 -0.0055705150603431244 -0.00039367041361554594
96845260 -0.005191796493210929 0.0005956120887447479
96875022 -0.005182119510131335 0.0006614794367472016
96904784 -0.00518822272385651 0.000723304369412734
96934546 -0.005143266922386286 0.0008644648753821312
96964308 -0.005190485791459239 0.0008638352960695101
96994070 -0.005216761729704677 0.0009199822246878715
97023832 -0.004670560516601755 0.0017130810679773277
97053594 -0.0052817640620297255 0.0010187594035961374
97083356 -0.00532593261835981 0.0010301803944738836
97113118 -0.005909984956335214 0.00019600364932834317
97142880 -0.005349420641070829 0.0011413360147121744
97172642 -0.004779487139196591 0.0018960936804070338
97202404 -0.005415706767192104 0.001203172307154484
97232166 -0.00541020369675881 0.0012728060254234002
97261928 -0.005441147037166331 0.0013399909388827256
97291690 -0.005439514987501272 0.0014524615170502784
97321452 -0.005442750789380207 0.0015508482042721427
97351214 -0.00546895501891274 0.0015966999368119282
97380976 -0.005483450233169881 0.001693123698440614
97410738 -0.005464980172751106 0.001796155997136927
97440500 -0.005449327756972424 0.0018923770087158408
97470262 -0.004778256840380681 0.0025867060932528107
97500024 -0.005445685192059918 0.002056683354140443
97529786 -0.005495239308242376 0.002101399019491126
97559548 -0.004767706037963868 0.0028023706821113615
97589310 -0.005490013852509704 0.0023016084428850395
97619072 -0.005420944707526862 0.002434633847721585
97648834 -0.005530517843917491 0.0024209991537117548
97678596 -0.005513671647492692 0.0025204857373723527
97708358 -0.004777762329480086 0.0031331152432386047
97738120 -0.005520325741805528 0.0026667710420310428
97767882 -0.005526196818826702 0.0027384823738894662
97797644 -0.006256777796402168 0.0022108122383947206
97827406 -0.00541995921010027 0.0029037852475757605
97857168 -0.0053164938403537565 0.0030164588680779876
97886930 -0.005227304078932865 0.0030904221618684247
97916692 -0.005886954949678506 0.002655533584218673
97946454 -0.0050725984675987 0.003236080984492458
97976216 -0.005706701106865502 0.002846024138651882
98005978 -0.004215610446063294 0.003760641720629459
98035740 -0.004827511141341311 0.0034444669397420864
98065502 -0.004831457827003745 0.0034687621361514267
98095264 -0.004900406348257617 0.003494091534026096
98125026 -0.004948448102688815 0.0035288889450689033
98154788 -0.004300385100192128 0.003925847298149845
98184550 -0.005091342860099354 0.0035601161497964048
98214312 -0.005163331881508412 0.0035786096122014674
98244074 -0.004499548422174623 0.003973819883114561
98273836 -0.005364967101848522 0.003578500207732256
98303598 -0.005396741523512529 0.0036134523051823087
98333360 -0.005476290031907058 0.003613442960929001
98363122 -0.0054897508600506885 0.003592635580255331
98392884 -0.0054294894402678 0.003628643343365752
98422646 -0.005451762141047969 0.003599145909825135
98452408 -0.005418446504954712 0.0035993489046264437
98482170 -0.005355796539061968 0.003616223137656452
98511932 -0.005376104783104599 0.0035905808980495383
98541694 -0.004561755697443931 0.003973454189249332
98571456 -0.005283242142796774 0.0036042934940264514
98601218 -0.006005459676931651 0.003181869509854402
98630980 -0.005218663652801198 0.0036395191049245134
98660742 -0.005174985458121196 0.0037078361873899733
98690504 -0.004395082145553306 0.004107958653997522
98720266 -0.005822795470039429 0.003455874043701674
98750028 -0.005032393328803205 0.0038841845820846836
98779790 -0.004983993164951612 0.003944007721511626
98809552 -0.004987519874798775 0.00398859933771683
98839314 -0.004889181867346618 0.004059850496083706
98869076 -0.004886192185752504 0.00409163107142321
98898838 -0.005541212805860551 0.003837554598649999
98928600 -0.004816529101253263 0.004186777519022619
98958362 -0.005564317189147885 0.0039061579005629206
98988124 -0.004894350941401283 0.00421760981640725
99017886 -0.004849044397196475 0.004264919059561935
99047648 -0.004911613696639512 0.004263912040350907
99077410 -0.004869853151072039 0.00430712023093475
99107172 -0.004884270109639915 0.004334334089890485
99136934 -0.00495399833090133 0.004336286873094539
99166696 -0.004978666058676381 0.004347452948692625
99196458 -0.0049040918565643596 0.004365535896216542
99226220 -0.004906631943474749 0.004347576045795861
99255982 -0.004950719644766295 0.00431514064918583
99285744 -0.004898218633858133 0.004325146311755667
99315506 -0.004949732094752739 0.0042876577167686334
99345268 -0.004948878777394079 0.004272031429509893
99375030 -0.00488681259356172 0.004279121700288568
99404792 -0.0049474120925421874 0.0042391503287639515
99434554 -0.004935192521295265 0.004223778803177552
99464316 -0.004832107126263831 0.004298055254880964
99494078 -0.004810812295042018 0.004344603690596024
99523840 -0.004666600446378268 0.004434638722788572
99553602 -0.00458297453827814 0.004493621902025727
99583364 -0.0051589031351601655 0.004324942740517524
99613126 -0.0037493687892442935 0.004828377884217049
99642888 -0.004347558656214147 0.004687578571401546
99672650 -0.004256562006574892 0.00474521594782443
99702412 -0.004808852855994683 0.004605428131811152
99732174 -0.004135569876572154 0.004825636827400595
99761936 -0.0040129367082578134 0.004846471050047407
99791698 -0.004279851093485878 0.0047590358693608255
99821460 -0.0042569186397530935 0.004750276171056945
99851222 -0.004360688942547645 0.004708670258749488
99880984 -0.004969732912811606 0.004495007717198474
99910746 -0.004372573812839972 0.004666228355096204
99940508 -0.005000549133186856 0.004440270501284803
99970270 -0.004452614413915656 0.004602599744703259
100000032 -0.004487938589285354 0.00458160100067893
100029794 -0.004466271288646946 0.004593368434206311
100059556 -0.00445573499369156 0.004603842439996864
100089318 -0.0044356360435493574 0.004620708545812684
100119080 -0.004421285771538283 0.0046337498626962004
100148842 -0.0044078466345971335 0.004653432119160532
100178604 -0.004394157975768934 0.004667826781430195
100208366 -0.0043774865021138035 0.004691190379126186
100238128 -0.004363055200825655 0.004695778471405849
100267890 -0.0043523846074700195 0.004712818858207033
100297652 -0.004337221388724896 0.00472712360525866
100327414 -0.00434413274894407 0.004731236022624204
100357176 -0.004345680987306523 0.004738944086133763
100386938 -0.00433867442403353 0.004751336631573742
100416700 -0.004346750005908672 0.004754915900021783
100446462 -0.004354804131361889 0.004766482223797176
100476224 -0.004350305639358431 0.004772029977164631
100505986 -0.00434739217856445 0.0047852120660817525
100535748 -0.004344318942994625 0.004788333465907219
100565510 -0.004373607983433005 0.004805496655822043
100595272 -0.004413358265149733 0.0048459714655760345
100625034 -0.004459783473060827 0.004885634025407538
100654796 -0.0045076894533959706 0.0049245318362744804
100684558 -0.004561784006572979 0.0049707069325403246
100714320 -0.004614270645779062 0.005008867239798204
100744082 -0.004671794175011973 0.005038477705276779
100773844 -0.0047203667753173365 0.0050817341851617445
100803606 -0.004781856664011811 0.005120818992568495
100833368 -0.004835515351831024 0.005163830228175727
100863130 -0.004782767034361629 0.0051564927743305835
100892892 -0.004727336369058508 0.005157926521276338
100922654 -0.0046807889553666885 0.005158917113280212
100952416 -0.004623955132885586 0.0051539826466586785
100982178 -0.004576797429082671 0.005151658770837575
101011940 -0.004519463089549773 0.005145790310185267
101041702 -0.004471340746539934 0.005133930923667018
101071464 -0.004423981777550286 0.005136607560169939
101101226 -0.004368036943041779 0.005135028389082015
101130988 -0.004354262681654588 0.005128235260860643
101160750 -0.0043572826303226175 0.005124623834496575
101190512 -0.004364383432859641 0.005121478564760347
101220274 -0.0043668589757069965 0.005114194968241154
101250036 -0.0043730131853328 0.005116177144989555
101279798 -0.004370054970516748 0.0051165912413819814
101309560 -0.0043726270811497246 0.00511446656454589
101339322 -0.004375879776977658 0.0051139316467034845
101369084 -0.004380052702066598 0.005107195254322851
101398846 -0.004363622710271327 0.005125073820381619
101428608 -0.004303506807484832 0.005192598812177228
101458370 -0.004249461338877128 0.005261686582249137
101488132 -0.00418276736527586 0.005320666565394705
101517894 -0.00413149424760814 0.005386532115613636
101547656 -0.00406804608643225 0.005451825164602469
101577418 -0.004006537621587317 0.005501985979518972
101607180 -0.003934753336760688 0.005569384330205767
101636942 -0.0038690085515112635 0.0056228639868631195
101666704 -0.0038015565620241536 0.005682373273130208
101696466 -0.0038904084467151516 0.005633194339130271
101726228 -0.003977486713114905 0.00558340796163851
101755990 -0.004066425729835518 0.005530090739229874
101785752 -0.004156453596142528 0.0054647101655059226
101815514 -0.00423735026681476 0.005406929797866096
101845276 -0.004315084963504551 0.005346618369139612
101875038 -0.004388784894503169 0.005278842324578743
101904800 -0.00446959206880367 0.005207650044896697
101934562 -0.0045481614455325226 0.005138867538857885
101964324 -0.004525258597243639 0.005144142632345895
101994086 -0.004433187272011679 0.005201284986872957
102023848 -0.004347014360863589 0.005245007076590485
102053610 -0.004266392648155653 0.00529810731984228
102083372 -0.004177451641256311 0.0053438012037322945
102113134 -0.004090240500731532 0.005385499766110317
102142896 -0.00400814996436149 0.005428449010496659
102172658 -0.003918240916815979 0.005468189900103925
102202420 -0.0038329916073055704 0.0055057616515878415
102232182 -0.003799259619223588 0.00553429646755484
102261944 -0.003887275863904444 0.00556319037217372
102291706 -0.003974255846232375 0.00558974584498152
102321468 -0.00406437143793127 0.0056117352197452485
102351230 -0.0041543875202729764 0.005635285743289294
102380992 -0.0042546372059188 0.005655015655531255
102410754 -0.004352453206917748 0.005678443996335577
102440516 -0.004451137413321387 0.00568961320050469
102470278 -0.004553688784852474 0.00570435979648523
102500040 -0.004652859870820327 0.0057186618988276355
102529802 -0.004603859087360124 0.005739678030085684
102559564 -0.00454849994800084 0.005754901803295668
102589326 -0.004482988849392731 0.005778860049937979
102619088 -0.0044315423400419695 0.0057985718493710455
102648850 -0.0043785747017743865 0.005815361336670257
102678612 -0.00431955227236411 0.0058353556564028665
102708374 -0.0042624211398035105 0.005848967004694828
102738136 -0.004211588792388079 0.005869407086614983
102767898 -0.004157063746546451 0.005879626711327713
102797660 -0.004124670953967368 0.005870544437165995
102827422 -0.0041105423350337195 0.005844272850136342
102857184 -0.004098573574596813 0.005814959748659344
102886946 -0.00408694899305262 0.0057838127212469
102916708 -0.004068085094482167 0.005759411780723511
102946470 -0.004057118388855752 0.005733182814862079
102976232 -0.004046560570633254 0.0057042290016797274
103005994 -0.004027604094818809 0.005679396122550688
103035756 -0.004013864283679527 0.0056523266125666554
103065518 -0.004007877125239192 0.005651619429488353
103095280 -0.004006740217351999 0.005670875616237778
103125042 -0.004009144501976756 0.005701222250971231
103154804 -0.0040106065515263 0.005724031171044271
103184566 -0.0040205426664487575 0.005752820750028733
103214328 -0.004016018702753699 0.005782434868205377
103244090 -0.004022753061726209 0.005806945785742704
103273852 -0.0040290111151144725 0.005835495190659044
103303614 -0.004033344225191386 0.005865432154832478
103333376 -0.0040348190053973755 0.005883962295803261
103363138 -0.003948016723419131 0.005893634007766005
103392900 -0.003862174133586644 0.00589539883051006
103422662 -0.0037810898105349365 0.005891235851149179
103452424 -0.003688413879315902 0.005886614991350501
103482186 -0.0036061412400870694 0.005883559309258942
103511948 -0.0035219649729988007 0.0058808971345317325
103541710 -0.0034383374922427883 0.005866885084003922
103571472 -0.0033530947868127825 0.005856192963374312
103601234 -0.00327620674163747 0.005848338419158115
103630996 -0.003279860749194498 0.005837854885812208
103660758 -0.003326781148854809 0.005828489497604255
103690520 -0.003371803075881324 0.0058197946324119185
103720282 -0.0034127458100705874 0.00581910481125028
103750044 -0.0034636252315246386 0.005804364920868682
103779806 -0.0035066264170830106 0.005797062423350427
103809568 -0.0035509495993170646 0.005785803110324269
103839330 -0.003600511888202172 0.005770717889106325
103869092 -0.003646232737873986 0.0057636045621338216
103898854 -0.0037271413030742304 0.0057574738546888
103928616 -0.003767810901689543 0.005785518821926009
103958378 -0.0038093205316477212 0.005790113546298961
103988140 -0.0038402995935470216 0.005817850131292736
104017902 -0.003889840444559201 0.00585200468684971
104047664 -0.003932385024652869 0.005862208159344405
104077426 -0.003973208776073151 0.00587863848820738
104107188 -0.003980605217905495 0.00590847520769624
104136950 -0.004020061358951357 0.005921908248667657
104166712 -0.004062070718164714 0.005951758080006504
104196474 -0.004054030485107953 0.005984382369851122
104226236 -0.004045136485663235 0.006032781140905327
104255998 -0.004027211653279819 0.006086955750937418
104285760 -0.004032529275616846 0.006117529598079722
104315522 -0.004003547448650071 0.006174233077020135
104345284 -0.003993633707414678 0.006215843702503144
104375046 -0.0039861173290381075 0.006266413620451649
104404808 -0.003968990648012448 0.006296124984520076
104434570 -0.003959795721671619 0.006341123215119832
104464332 -0.0039412298753638084 0.006333733182958121
104494094 -0.003932195344646267 0.00628007496592011
104523856 -0.003920888189099163 0.006219140545040723
104553618 -0.003917438068235824 0.006157067279052165
104583380 -0.003906983235041972 0.006108124431080954
104613142 -0.003899065277605226 0.006055203691674084
104642904 -0.0038835655012615486 0.006000850897768026
104672666 -0.0038757952538376987 0.005948005476034337
104702428 -0.003864078156372042 0.005891675091418132
104732190 -0.003850453739554975 0.005884840406791738
104761952 -0.0038343302035934606 0.005953869972609161
104791714 -0.003814458373690663 0.006029296420412581
104821476 -0.0037973251164670993 0.0060948361140222085
104851238 -0.003775368051079213 0.00617385517840538
104881000 -0.0037587134570430357 0.006248543470550423
104910762 -0.003735944716815316 0.006322514887059685
104940524 -0.003705959899490672 0.0064000329468201275
104970286 -0.003683893584303488 0.006473262046486534
105000048 -0.0036511300529354852 0.006550022469151873
