# HZ S RI R 50
90000000 -0.0004951435568549356 0.005358018530041722
90029762 -0.00046247756939982925 0.0053937915348907725
90059524 -0.0006914714762419324 0.005411191572738911
90089286 -0.0005555845019828288 0.005454253875477259
90119048 -0.0007335553175243714 0.005474474184583544
90148810 -0.0005981542106479684 0.005513733607056776
90178572 -0.000621550974476715 0.005544830607866624
90208334 -0.0005943089507464306 0.0055805844180649876
90238096 -0.0008276257967377806 0.005596212325139723
90267858 -0.0006936602509207871 0.005638861570804725
90297620 -0.0006830565241919734 0.005617373041501831
90327382 -0.0006074309954881 0.005571900394003623
90357144 -0.0006307680016581652 0.005523980368120824
90386906 -0.0005523657555189502 0.005483198981776516
90416668 -0.0007252143137435891 0.005423336584386845
90446430 -0.0005512212342130393 0.005388613981052757
90476192 -0.00047744065230788786 0.005350652045980509
90505954 -0.0004533779492949247 0.005304759751770358
90535716 -0.0004746048450904481 0.00525774857095516
90565478 -0.0003972719853519823 0.005237342733085015
90595240 -0.0004071253073037645 0.00524329065632893
90625002 -0.0003663836506884953 0.005253728490096155
90654764 -0.00027923486234851275 0.005266242715620642
90684526 -0.0002439773431931158 0.005273962880879178
90714288 -0.00024440392871303776 0.005280429045739619
90744050 -0.00020205802094139816 0.005290864792540544
90773812 -0.00011746198265076796 0.005301775054713562
90803574 -0.00012153581386455897 0.0053081394717310855
90833336 -3.4957445032744384e-05 0.005320836026685631
90863098 -9.180160710892917e-06 0.005289883309478684
90892860 -2.8182968690280735e-05 0.005265671002121062
90922622 4.165306864630256e-05 0.005237910778822434
90952384 6.474785246219126e-05 0.0052092548232917256
90982146 4.79603315137946e-05 0.005184428322760804
91011908 0.00011422371271159397 0.005157135673986163
91041670 9.803564617152356e-05 0.005131429710569993
91071432 0.0001243076547688942 0.005104615417629361
91101194 2.9357123467744197e-05 0.005079484791625879
91130956 0.0001813756951542038 0.005090096908970634
91160718 0.00012112465118131619 0.005116565101196759
91190480 0.00010030998351552219 0.005144342564666334
91220242 -3.8920530235974234e-05 0.00516956287144866
91250004 5.719991348246683e-05 0.005200786943844361
91279766 -8.694259825706911e-05 0.00522435368881987
91309528 4.994808640774029e-05 0.00525907542886159
91339290 -1.7774323560793816e-05 0.005285091668673702
91369052 -3.032548944736177e-06 0.005312364962945957
91398814 -0.00017384336331447418 0.005311986568984815
91428576 -4.54029868730558e-05 0.005291564200541542
91458338 -1.5857036295085965e-06 0.005266720771550987
91488100 -3.164173411609319e-05 0.005239585062899317
91517862 -2.5326743215610567e-05 0.005212627364792088
91547624 2.3867074732289662e-05 0.005190087554199907
91577386 2.9634867677325274e-05 0.005164923145970496
91607148 1.9387899909474524e-08 0.005132579953281053
91636910 1.0254601896170848e-05 0.005107091341111796
91666672 5.5413685909723414e-05 0.005084227425726249
91696434 9.657310740247333e-05 0.005087231719528399
91726196 0.00020887125206810203 0.005090027689703376
91755958 0.0002826136844309595 0.005088785214867836
91785720 0.00032845019943678093 0.005087250251966247
91815482 0.0004413059186425672 0.005086532392973171
91845244 0.0005177664219233495 0.005080986348070034
91875006 0.000565910796295758 0.005073748631529673
91904768 0.0005432867978060182 0.005063000500333432
91934530 0.0007267653391339752 0.00504923273366133
91964292 0.0007577934592831663 0.00505697698822432
91994054 0.0008026949493126349 0.005070570856106532
92023816 0.0006805875474728219 0.005091774298185684
92053578 0.0007923818380672771 0.005099215106301223
92083340 0.0008007333841053001 0.0051120059557385545
92113102 0.0008468905371272832 0.005127684229575032
92142864 0.0008275716085336726 0.005139578500087106
92172626 0.0008700062177466104 0.005154699380106637
92202388 0.0007535465908254428 0.0051728333254113
92232150 0.0008571892114312879 0.005159849164530111
92261912 0.00074769275275718 0.00510725678615322
92291674 0.0008596747778900856 0.00505376443769955
92321436 0.0008148126505337702 0.004999594168367022
92351198 0.0008308099225430471 0.004944166798432919
92380960 0.0007902760291711743 0.004890701414779411
92410722 0.0007835852445437748 0.004841498061168042
92440484 0.0007995883056673505 0.004788879242094131
92470246 0.0007915474838566887 0.004737277835873486
92500008 0.0007572152584397138 0.004683240567969709
92529770 0.0007707426339224658 0.004694865142603421
92559532 0.000807073548850516 0.0047036531971528335
92589294 0.0007902766372073894 0.004713175364635808
92619056 0.0008315881338349264 0.00472268668365221
92648818 0.0008412338958479532 0.004730825834587527
92678580 0.000826624568865228 0.004741069679103709
92708342 0.0008650002017642121 0.004748161812216906
92738104 0.0008747170309303278 0.004754970880093567
92767866 0.0008652206412551175 0.004760547456911112
92797628 0.0009237426111244755 0.004758245401906443
92827390 0.0009433888063489351 0.00474802305574128
92857152 0.000984510141588128 0.004736247250846825
92886914 0.0009528987590531727 0.004722881192656471
92916676 0.0010971841705100652 0.004712562707767258
92946438 0.0011160521433530753 0.004694316532718031
92976200 0.001162253536038394 0.004681848468762391
93005962 0.0011306272795688316 0.0046632060816346795
93035724 0.0013194330157922922 0.004624671866182975
93065486 0.0012352526755055717 0.00462217122786145
93095248 0.0014175579278846015 0.0045758031389162065
93125010 0.001475012766588539 0.004531783256551819
93154772 0.00153081306900074 0.004502044624295188
93184534 0.0015695158388341205 0.004441993492085454
93214296 0.0016930060415582834 0.004391994986833828
93244058 0.0017309749443803664 0.004338555289443357
93273820 0.001781535927744202 0.004310337640766816
93303582 0.001990944731835607 0.004187320663748026
93333344 0.0020013328492678177 0.004162885220856751
93363106 0.0020152717471053597 0.004135225041208937
93392868 0.001972744750373659 0.00413731075164735
93422630 0.0019459716451517362 0.004127619944740044
93452392 0.0019412648417242498 0.004114109685646863
93482154 0.0018985548578563994 0.0041025158456635515
93511916 0.0018702176480103186 0.004093280275720937
93541678 0.001896289759954934 0.004063438312261249
93571440 0.0018013268711828097 0.004069013439988095
93601202 0.0018505403666718462 0.004029378501260435
93630964 0.001835782407409837 0.003998585916352557
93660726 0.0017936152866605403 0.003980489133531697
93690488 0.0019825863184026733 0.003880997393564367
93720250 0.002023729527332633 0.0038261552524865325
93750012 0.002082334329643842 0.0037671997693952907
93779774 0.0021618624112335547 0.003691402836542895
93809536 0.002149577295751876 0.0036489066832656523
93839298 0.00225962056624998 0.0035597359658399554
93869060 0.0023155629485293616 0.0034899236969973303
93898822 0.0023676798105884606 0.003411094977845087
93928584 0.00237751216492004 0.003349730557795516
93958346 0.0024180300482716834 0.00327228198716225
93988108 0.002375909249190513 0.0032225270152726306
94017870 0.002437830319929791 0.003137887121805329
94047632 0.002420778090968203 0.0030777011772495826
94077394 0.002490909350109951 0.0029760894106287193
94107156 0.002493765864975642 0.002905170669935768
94136918 0.002519673994568167 0.002822504856847209
94166680 0.002521938252071566 0.0027447779171611026
94196442 0.0026416528652753856 0.0028261677082627927
94226204 0.0027295840629237666 0.002937612455065602
94255966 0.0029188794327538303 0.003019374654684251
94285728 0.0030336766235007596 0.003139499441804371
94315490 0.0031956134421438024 0.0032712523703127714
94345252 0.003364304919687001 0.003415640063346324
94375014 0.003536181624506787 0.003605164481320831
94404776 0.0037329460266654108 0.0038050891621309577
94434538 0.003937183509639026 0.004063890924372389
94464300 0.003850752302204033 0.0037813525568350425
94494062 0.003663555032575451 0.0032734426511256518
94523824 0.0034657537463242617 0.0028426066140761503
94553586 0.003278023803376554 0.002467871056068953
94583348 0.0031024971022790794 0.002139110600181149
94613110 0.002946670263839693 0.0018577397644145405
94642872 0.002789269156763523 0.0015959082534194027
94672634 0.0026521942490614838 0.0013656659510351884
94702396 0.002515565315136073 0.001152413874550787
94732158 0.002421561948029847 0.0009926983577883243
94761920 0.002364411939531377 0.0008663223152153799
94791682 0.0023167427423602667 0.0007547193721069521
94821444 0.00226889477586848 0.0006205577209199403
94851206 0.0022119107707867488 0.00051732783738881
94880968 0.0021541338791077405 0.00037599995566623627
94910730 0.002082433998934628 0.0002610869870712142
94940492 0.0020212870651387855 0.0001393744294605704
94970254 0.00195532092122604 2.9641029284747736e-05
95000016 0.0018755723446644138 -9.459102780302937e-05
95029778 0.0018274740881956894 -0.00018217231776801893
95059540 0.0017564149909740131 -0.00031110272666257034
95089302 0.0016987388430308075 -0.0004199306600103181
95119064 0.0016151806233495752 -0.0005256808254686632
95148826 0.001553943830587127 -0.0006200528377484233
95178588 0.0014639458117599552 -0.0007311824553980597
95208350 0.0013674992423627855 -0.0008469809676043746
95238112 0.0012734157113981062 -0.0009548428224620901
95267874 0.0011701396673532303 -0.0010619651881928554
95297636 0.0010603280435590892 -0.0011652848970107076
95327398 0.0009366815821808749 -0.0012688526038903364
95357160 0.0008149522714050206 -0.0013719259700733391
95386922 0.0006941038520160564 -0.0014713755931145965
95416684 0.000549891534932877 -0.0015650139602456689
95446446 0.0004032515417711488 -0.0016473064053359075
95476208 0.00025562920873400946 -0.0017255050193315652
95505970 0.00011860149218346897 -0.0018079735995973328
95535732 -4.2059294714101707e-05 -0.0018657903851965905
95565494 -0.00020206917207987035 -0.001934441318055342
95595256 -0.000368756405684487 -0.002000554195305352
95625018 -0.0005357665409750796 -0.002053985846987443
95654780 -0.0007250854734546995 -0.0020764744754429806
95684542 -0.0009080968659966128 -0.002123476054490549
95714304 -0.0010952535531874223 -0.0021614076652368623
95744066 -0.001268493443605198 -0.0021602610720201382
95773828 -0.0014410442041449627 -0.002198146105814868
95803590 -0.0016359147731070495 -0.002172681324662393
95833352 -0.0018056346193904243 -0.0021623785498849734
95863114 -0.0019868009559434957 -0.002115926195943233
95892876 -0.00213120554599468 -0.0020446522598501124
95922638 -0.0022935149229967164 -0.002002653969518034
95952400 -0.002442094471738661 -0.00195442108151874
95982162 -0.002568724787619254 -0.001896054449963104
96011924 -0.00236466197416429 -0.00267456025203475
96041686 -0.0028522489523362146 -0.0018062817622546733
96071448 -0.0029856696626082003 -0.001725255133605207
96101210 -0.003107389139649757 -0.0016406133315668356
96130972 -0.0029981795388862205 -0.0024747614628029117
96160734 -0.0033804797100513368 -0.0015168377239233688
96190496 -0.0035267189059661696 -0.0014621243574444076
96220258 -0.003674510073677939 -0.0014542195594915291
96250020 -0.003783884813094589 -0.00135135920945542
96279782 -0.003910442921284506 -0.0012149159035622834
96309544 -0.004023489017086937 -0.0011348578596098752
96339306 -0.004174595272940955 -0.0011604156237061685
96369068 -0.0042636707157496555 -0.0010059738614856325
96398830 -0.004365417909820763 -0.0008705673842729246
96428592 -0.004486180921089121 -0.0007913307390956342
96458354 -0.004606254532507981 -0.0006829074990260397
96488116 -0.004416599898747923 0.0003855970841211839
96517878 -0.004796351723139002 -0.00043956526883579396
96547640 -0.004891229615610674 -0.00033304649629544906
96577402 -0.005004865099952159 -0.00021531634012671126
96607164 -0.005077133116868948 -8.53109112391221e-05
96636926 -0.004701060303513479 0.0009606684343307202
96666688 -0.00521469259621388 0.0001501478260770652
96696450 -0.005234488790679819 0.0002468741220731001
96726212 -0.005257041447889828 0.0003201637427839677
96755974 -0.005807872917105697 -0.0008898468702295492
96785736 -0.005256889557085453 0.00047469936237295535
96815498 -0.005726078961852181 -0.00048260114003130256
96845260 -0.005255975134037385 0.0006353716962817726
96875022 -0.005249726838609886 0.0007156023671576013
96904784 -0.00524126077106214 0.0007671402704949342
96934546 -0.005192614701099333 0.0009042639804881409
96964308 -0.00524759976039211 0.0008989929805825459
96994070 -0.005262082913587028 0.0009582033221523718
97023832 -0.0047125191665716255 0.0017717378958398483
97053594 -0.005340095215107715 0.001039176001617865
97083356 -0.005383372878484389 0.0010664003820013528
97113118 -0.005969780174414667 0.00022813236271490065
97142880 -0.005395842383391873 0.0011731688651158917
97172642 -0.004811475626837332 0.0019321805880604134
97202404 -0.0054698624512233 0.0012235853271294244
97232166 -0.005476303779333267 0.0013052458877861946
97261928 -0.0054924521976877335 0.001370309503228214
97291690 -0.005483620480305909 0.0014761153201475867
97321452 -0.00549411226120224 0.0015763282021285033
97351214 -0.005522757013886472 0.0016450041717220793
97380976 -0.005518698214443487 0.0017318895926773448
97410738 -0.0055134194923880985 0.0018347809073091888
97440500 -0.005509741052742471 0.0019304032422837304
97470262 -0.0048125809764494034 0.0026231630353708204
97500024 -0.005506462294591991 0.0020874771024186793
97529786 -0.005542448685371896 0.002151028895229586
97559548 -0.004807061120493917 0.002829284115598071
97589310 -0.00554240411736806 0.002325811371273744
97619072 -0.0054653130191766475 0.00248316740883955
97648834 -0.00557086629916511 0.0024536058821765998
97678596 -0.005555343516673952 0.0025585779789467408
97708358 -0.004810225578641212 0.0031613671557034744
97738120 -0.005566328750989559 0.002708865322510439
97767882 -0.005575806407918682 0.002778841999648705
97797644 -0.006312097607525787 0.0022553485668533693
97827406 -0.005470676657723062 0.0029358957446467943
97857168 -0.005356951827066315 0.0030469996900818236
97886930 -0.005276322791305481 0.0031271039218952086
97916692 -0.0059380741336649626 0.0027006263078526347
97946454 -0.005114906784515813 0.0032756575569626717
97976216 -0.005765370579771057 0.002871828408646345
98005978 -0.00424582687293976 0.0037883769650380646
98035740 -0.004869619484966692 0.0034841044833023678
98065502 -0.004876273839031259 0.0035101811091837022
98095264 -0.00489721216373012 0.003542341553237742
98125026 -0.0049890063234479505 0.003565583082923045
98154788 -0.004338259210877276 0.003956866056531949
98184550 -0.005129838317058132 0.0036049614597107498
98214312 -0.005211443195111784 0.0036229849102791265
98244074 -0.004534731782776187 0.004021067371035736
98273836 -0.005397109094761606 0.0036204688990437756
98303598 -0.0054418660790516065 0.003643203884893736
98333360 -0.005529250814582933 0.003654839217871129
98363122 -0.005539721140927765 0.0036392796947485096
98392884 -0.0054738915493094285 0.0036583530861241044
98422646 -0.005496567779044543 0.003633831525487218
98452408 -0.005469624249193129 0.0036276670919718835
98482170 -0.005398166501017823 0.003657138920778776
98511932 -0.005417051052892375 0.0036229096172013175
98541694 -0.004600360824569964 0.004022900654803911
98571456 -0.005325242620349546 0.003647911191075242
98601218 -0.006059258759636006 0.003229861361790478
98630980 -0.005270651705060784 0.003683921692699411
98660742 -0.005213188289513057 0.00374826054355491
98690504 -0.004437504468062773 0.004145205449779583
98720266 -0.005879332531216616 0.0034921329602120577
98750028 -0.005076315994316928 0.00393177343720519
98779790 -0.005029252486359212 0.003991338265351002
98809552 -0.005035230954359846 0.004026732682486092
98839314 -0.004934610069891074 0.004099745966921738
98869076 -0.004936041969853684 0.004141831284219658
98898838 -0.005594916753803676 0.0038934684977618237
98928600 -0.00486755731184495 0.004228223159876167
98958362 -0.005620111953839296 0.0039521431615564045
98988124 -0.004934608289610673 0.004267352652050012
99017886 -0.004894372234913506 0.004278834015711154
99047648 -0.004943737244179006 0.00428277154788854
99077410 -0.004909614291290444 0.004324835658349753
99107172 -0.004919065543791367 0.0043678940883887275
99136934 -0.004987295740302973 0.0043691458454626336
99166696 -0.004996982103629653 0.004390713275739245
99196458 -0.004940110682819798 0.0044006175755859885
99226220 -0.004937347091596862 0.00439241134212451
99255982 -0.004801988649584974 0.004354055389470936
99285744 -0.004942143623148595 0.00434891545039647
99315506 -0.005088941967550623 0.0043023440773634625
99345268 -0.004895572433208401 0.004292929224223055
99375030 -0.004883407581304606 0.004309066239567046
99404792 -0.004987689129555542 0.00426729621303351
99434554 -0.004987431760671539 0.004255018507794934
99464316 -0.0049651539473590175 0.004317079182585115
99494078 -0.00484828831854404 0.004373670503334873
99523840 -0.004713096520934225 0.004462077140932576
99553602 -0.00462789156947578 0.004536928478314696
99583364 -0.005196058427024289 0.004393067814103644
99613126 -0.003815264470415925 0.004877911223065823
99642888 -0.004376981023229517 0.004730618286098439
99672650 -0.004288085579855431 0.004799176092902132
99702412 -0.004829598880810501 0.0046642856200365184
99732174 -0.004162983561445473 0.004879288430184356
99761936 -0.004246833281423154 0.004928300898437911
99791698 -0.004298105554908813 0.004810177868723365
99821460 -0.004286592547805651 0.004805605175177197
99851222 -0.004384802933882683 0.004762319701204471
99880984 -0.00500584558165617 0.004551503796803464
99910746 -0.004399725798201816 0.004723086754381204
99940508 -0.0050861689365582306 0.0044910393735151845
99970270 -0.00447376417197481 0.004661876392239196
100000032 -0.004510474217549341 0.004636430324954335
100029794 -0.004493954578716172 0.004646583882319921
100059556 -0.004480324034382894 0.004665098964340062
100089318 -0.004462509137241526 0.004679513706632416
100119080 -0.004443774133678996 0.004688244947578198
100148842 -0.004421060022545066 0.004719763712124243
100178604 -0.00440440481533601 0.0047222382206515605
100208366 -0.004389013499603058 0.004745256458595256
100238128 -0.0043813775340131485 0.00475170258413455
100267890 -0.004365262512977621 0.004765237866987406
100297652 -0.004336700132048001 0.0047788482894765795
100327414 -0.004344267137726972 0.00478700990569338
100357176 -0.0043402140551419945 0.004799932947678278
100386938 -0.0043519270946270365 0.004797359016126896
100416700 -0.004358727147187025 0.004809272481064068
100446462 -0.004356229668077303 0.004818147391367745
100476224 -0.004354906917450068 0.004828860117335214
100505986 -0.004352931366859241 0.004838505348243042
100535748 -0.004361120528185081 0.004841918110014695
100565510 -0.004379189407354895 0.004857955356325077
100595272 -0.0044201632059778 0.0049025724656019025
100625034 -0.0044468939506068965 0.0049317450591908054
100654796 -0.004490695454914718 0.004965503087071459
100684558 -0.004543644334388059 0.005011863611912365
100714320 -0.004615037695871554 0.005059532761931991
100744082 -0.004667027271786085 0.0050963490781032825
100773844 -0.004724072760419119 0.005132625538921276
100803606 -0.00479374812938991 0.005176889924795598
100833368 -0.004846584368045617 0.005216580250529199
100863130 -0.004780296778446329 0.005216885027412211
100892892 -0.004734785867379908 0.005214805391874269
100922654 -0.0046838902740578316 0.005204384264864596
100952416 -0.004630832772174479 0.005212881726803521
100982178 -0.004570574269276271 0.005192529394683824
101011940 -0.004508455130495396 0.005192061734717965
101041702 -0.004458212384302773 0.0051873135470405785
101071464 -0.0044084761260052945 0.005183833430445991
101101226 -0.004354435934775376 0.00517576765966572
101130988 -0.004350966382184408 0.005178691747404255
101160750 -0.0043577127239586054 0.005166228962891423
101190512 -0.004358267586826692 0.005169782112068085
101220274 -0.004359407784665119 0.0051641771899670315
101250036 -0.004364744375685776 0.005159523275613214
101279798 -0.004365267196237205 0.005157480547707472
101309560 -0.004367111112746542 0.005158785472443603
101339322 -0.004367293310693498 0.005153416847218692
101369084 -0.00436472766344786 0.005144872098318377
101398846 -0.004357531903389016 0.0051672729406633255
101428608 -0.004280100851472684 0.005227789508438261
101458370 -0.004222372051628816 0.005282631953922201
101488132 -0.004162206324071283 0.0053451860202137665
101517894 -0.004103367414044558 0.005409944226878687
101547656 -0.00404105315695858 0.005470531175234944
101577418 -0.00398663602335899 0.005539911105344264
101607180 -0.003926541877684864 0.005600639434108814
101636942 -0.0038596189179524484 0.0056613440881843075
101666704 -0.0037870330697205253 0.00571602826105984
101696466 -0.0038804730452535467 0.005665479631658479
101726228 -0.003975353659394493 0.005615741287990922
101755990 -0.004060478879819296 0.005559188468377328
101785752 -0.004143977954515853 0.005507911623071496
101815514 -0.004222278372094899 0.005438910076737235
101845276 -0.004311524856174539 0.0053794182572868545
101875038 -0.004380702175800977 0.005299235303823782
101904800 -0.004459306825947959 0.0052271538276995435
101934562 -0.0045371258530098445 0.005158868290546795
101964324 -0.004503795829248004 0.005170239199789302
101994086 -0.004419957490960705 0.00522699522107869
102023848 -0.004282459190431508 0.005238145623712072
102053610 -0.004280717423554542 0.005307974168315885
102083372 -0.004198545987117539 0.005357481941760543
102113134 -0.004111549478237772 0.005407205083978187
102142896 -0.00402398048355971 0.005438067172609413
102172658 -0.003939037805640526 0.005479721344069971
102202420 -0.003846481456697214 0.005516781902972442
102232182 -0.0038230914223430683 0.005547620563770836
102261944 -0.003909695036339727 0.005576746939243875
102291706 -0.003993179091427334 0.005596238241957778
102321468 -0.0040871666514959645 0.005620501651499778
102351230 -0.004174574621155391 0.005640454300060187
102380992 -0.0042732656230963844 0.005656021008302081
102410754 -0.004364067604526022 0.005688219714207363
102440516 -0.004469303794978042 0.005701388766471076
102470278 -0.004573893723855723 0.005707094947275927
102500040 -0.004676946923862647 0.005717104283950975
102529802 -0.004625091244406621 0.005738134077138418
102559564 -0.004567233713277604 0.00575740001847474
102589326 -0.004510967635805418 0.005782956797545931
102619088 -0.004453735759617439 0.0057950155541069606
102648850 -0.004400674787605914 0.0058192463717456405
102678612 -0.004343119682771742 0.0058351603125224956
102708374 -0.004290959936480234 0.005854448679583525
102738136 -0.004228749251144386 0.005867742798856407
102767898 -0.004178888601995063 0.005886850242201949
102797660 -0.004148648130508151 0.005868513393940006
102827422 -0.004137928588593301 0.005840756153400758
102857184 -0.004120158144932724 0.005811130376218927
102886946 -0.004112446257065153 0.005781991455858732
102916708 -0.004093275868173883 0.005760601844374761
102946470 -0.004080657307249194 0.005730955024702831
102976232 -0.004067528462521914 0.005708713131196056
103005994 -0.004053715132898414 0.005678363135704537
103035756 -0.0040430782996333965 0.005654202958604318
103065518 -0.0040319311079700295 0.005644295275575135
103095280 -0.0040322098263174695 0.005674783306412262
103125042 -0.004043916668870063 0.005697134041089186
103154804 -0.004043712740214408 0.005721278299403521
103184566 -0.00404947341077852 0.0057520902176859965
103214328 -0.00405044607594387 0.005779627893725022
103244090 -0.004055503323000548 0.005808720048887071
103273852 -0.004057641520497562 0.0058409019084974135
103303614 -0.004063349773056442 0.005867054340442004
103333376 -0.004071943728524369 0.005890262139856957
103363138 -0.003978395109482997 0.005890270321417699
103392900 -0.003890784245818976 0.005891959916827513
103422662 -0.0038011164099295653 0.005887341031120688
103452424 -0.0037144019780751747 0.005883072180852341
103482186 -0.0036342412786463446 0.005875305621782641
103511948 -0.0035511188645409096 0.005869054024600404
103541710 -0.00347040320098296 0.005867740303471819
103571472 -0.003385286709726694 0.005853467694967828
103601234 -0.003301344598804136 0.005838919750673085
103630996 -0.003310786722765412 0.0058339157608184216
103660758 -0.0033575247830481504 0.005830020399700425
103690520 -0.0034062866514657335 0.005817257678209172
103720282 -0.0034456570699487364 0.005810742531844759
103750044 -0.0034955421938822296 0.005807368048360558
103779806 -0.003546004396323471 0.005794319517691574
103809568 -0.003591169593394078 0.005785887550107356
103839330 -0.0036474349241439473 0.005773649439432481
103869092 -0.0036876137178731986 0.005760274746034242
103898854 -0.003732645017760623 0.0057595290563816634
103928616 -0.003766170961121485 0.005778314445144424
103958378 -0.0038112745973187287 0.005804358904665378
103988140 -0.0038478993985702264 0.005827342340996302
104017902 -0.0038963860986768817 0.005848135153801285
104047664 -0.0039365967720934305 0.005867224577664411
104077426 -0.003977400057442296 0.00588433403571838
104107188 -0.004026597660638556 0.005901165434820438
104136950 -0.004070839459443882 0.00593042560858279
104166712 -0.004115481108109776 0.005952158888720444
104196474 -0.004105749553621056 0.005996642570180526
104226236 -0.0040958829896138894 0.006041374289516694
104255998 -0.004082508055329068 0.006085911035843019
104285760 -0.004074943430871651 0.006129736527608283
104315522 -0.004061916746091391 0.00617366945397903
104345284 -0.00404691777797062 0.006221732604457353
104375046 -0.004038461469347301 0.006273673854874987
104404808 -0.004028211176696309 0.0063105371894055995
104434570 -0.00401215855889605 0.006364112631292725
104464332 -0.00400327054361276 0.006346411562995721
104494094 -0.003992771133114369 0.006283167733019706
104523856 -0.003985684589554919 0.00622695894752296
104553618 -0.003977821990145404 0.006176965737140942
104583380 -0.003964613156779162 0.006122802407846653
104613142 -0.003962838827228973 0.006063023634379306
104642904 -0.003950467502324403 0.006009182439831805
104672666 -0.0039423043822737645 0.00595409712821706
104702428 -0.00393290199563028 0.005905821692795268
104732190 -0.003915129852979642 0.005896805893153962
104761952 -0.0038975887852476317 0.005972057105871016
104791714 -0.0038831235295091935 0.006040631275565852
104821476 -0.0038656646952795284 0.006111685507298097
104851238 -0.003845926799823222 0.006193485303339844
104881000 -0.003825363624056147 0.006257370910600773
104910762 -0.0038051877824821 0.0063369543764335975
104940524 -0.003783516768108007 0.006417835320775624
104970286 -0.00375986272819623 0.006496139488799291
105000048 -0.0037173160504253094 0.0065751501820981665
