# HZ S RI R 50
90000000 -0.000392698065844683 0.0053099031436292165
90029762 -0.0003560719675593073 0.005342916026469369
90059524 -0.0005856127000903369 0.005366034820858824
90089286 -0.0004492850413246872 0.0054008472994081175
90119048 -0.0006261426102421225 0.005423828801872205
90148810 -0.0004885717440702809 0.0054642175759617795
90178572 -0.0005113915957377558 0.005492796010481564
90208334 -0.0004804589550659569 0.005525117455288615
90238096 -0.0007094303588129913 0.005536877870762937
90267858 -0.0005751450706641351 0.005584046771458039
90297620 -0.000564423507317977 0.005560016233819157
90327382 -0.0004905845195315681 0.005519131635571215
90357144 -0.0005130706897453661 0.005467351853587861
90386906 -0.00043480191552526515 0.005424005330807304
90416668 -0.0006071884120431873 0.005363102178697922
90446430 -0.0004309428050438309 0.0053284905229661885
90476192 -0.00035855558916958143 0.0052899285758141
90505954 -0.0003350745784881653 0.005245968443272446
90535716 -0.00035429138751136394 0.005199153451074892
90565478 -0.0002802557713687031 0.005173234336018202
90595240 -0.00028588240586238493 0.005178061468459724
90625002 -0.00024171263539021526 0.0051911226800724995
90654764 -0.00015790304778383048 0.005196504243161463
90684526 -0.0001190779426973059 0.005210285521655045
90714288 -0.00012109295380936633 0.005212153091955719
90744050 -7.624548933856903e-05 0.0052185564050336855
90773812 6.7485534480861456e-06 0.005226520358815156
90803574 7.22511100256492e-06 0.00522938067121667
90833336 8.914050333745413e-05 0.005240703334017777
90863098 0.00011595110156927182 0.005210314922507023
90892860 9.82980467415529e-05 0.005180448486359909
90922622 0.00017082868886811504 0.0051563567888146256
90952384 0.00019236176928644712 0.005123893784732973
90982146 0.00017470535066835315 0.005095429272749986
91011908 0.00024249357955292286 0.005071286304506633
91041670 0.00022507263383817903 0.005044199337265652
91071432 0.00025173464417525463 0.005017392399165121
91101194 0.00016361009246911926 0.004989950761086791
91130956 0.0003136633362626965 0.004997287394910598
91160718 0.0002560490135936478 0.005022647112042995
91190480 0.00023579715603650153 0.005051291446552337
91220242 0.00010204776638935804 0.005076345440218018
91250004 0.00020077972787236215 0.00510234038692982
91279766 6.221441938672684e-05 0.005126205965225266
91309528 0.00019529928314928672 0.005157229858926986
91339290 0.00013513257176931415 0.005181435273725072
91369052 0.00015286976546389922 0.00521039318780252
91398814 -1.6025872973600146e-05 0.005209038599075683
91428576 0.00010802736831833536 0.0051893736566813375
91458338 0.00015646155405796977 0.005167876168741499
91488100 0.00012414029594687992 0.005127951424378837
91517862 0.00013582702117394558 0.00510352859714428
91547624 0.0001836922911517833 0.005077926584936862
91577386 0.00019038722685728933 0.005050068797679044
91607148 0.00016394495949541922 0.005018522946377758
91636910 0.00017457045459537122 0.0049958418477794525
91666672 0.00021967715759419075 0.004966550716728171
91696434 0.0002596561061538306 0.004963289347554654
91726196 0.0003701715196357348 0.00496718562560036
91755958 0.0004496530525679692 0.004959696513404462
91785720 0.0004934221448414764 0.004954613922379316
91815482 0.0006079585599455528 0.004944902153172494
91845244 0.0006836095020000677 0.004935805609011285
91875006 0.0007336688473782372 0.004921534017218663
91904768 0.000713957319514098 0.004911992277849544
91934530 0.0008857287538485301 0.004892405283929558
91964292 0.0009252485949527506 0.004893808554681129
91994054 0.0009686345338521346 0.00490708069264823
92023816 0.0008575585141266145 0.004919499881417487
92053578 0.0009684586759377649 0.004924077520592722
92083340 0.000982172585297232 0.004935769573224432
92113102 0.0010271509872035883 0.004945890183553364
92142864 0.0010168953226240552 0.004956864643315907
92172626 0.001054865380014945 0.004961382615156159
92202388 0.0009478731809297222 0.00497902333979956
92232150 0.0010463371509330918 0.004962972049688042
92261912 0.000936690981683614 0.004906068482418616
92291674 0.0010521143869764555 0.004852261000565329
92321436 0.0010055109046299571 0.004794586637540329
92351198 0.0010190651612883499 0.004742354990931072
92380960 0.0009873168494481976 0.004684889481219546
92410722 0.0009721557449335889 0.004632258150214177
92440484 0.000994779660633499 0.004581574208425622
92470246 0.0009854104557848633 0.004521797911240815
92500008 0.0009526500139980593 0.004471625359045647
92529770 0.00096667240883998 0.004476175598827879
92559532 0.0010065126864791545 0.004483224268240544
92589294 0.0009966943436616486 0.004481713563853302
92619056 0.0010375224507315052 0.00448834338530131
92648818 0.0010546580847580684 0.0044903453842750525
92678580 0.0010407286976114897 0.004493421418730473
92708342 0.0010816871019615117 0.004493262843296165
92738104 0.0010942550547965503 0.004494618316711392
92767866 0.0010843343934071395 0.004499350702041866
92797628 0.00114722979885826 0.0044874290262083205
92827390 0.0011660887743642678 0.004467522908942097
92857152 0.0012116204456789738 0.0044511821742309115
92886914 0.0011835180848224055 0.0044305695543471555
92916676 0.0013238576213093886 0.004409049603151176
92946438 0.00134404257700638 0.004387768030214827
92976200 0.0013862129378363276 0.004360628510839781
93005962 0.0013800873028540952 0.0043038307511712465
93035724 0.0014839326753292347 0.004299041392934554
93065486 0.0014713453794599227 0.0042658463213852485
93095248 0.0016423973963082888 0.004198454704981865
93125010 0.0016959423393798775 0.0041472543239293135
93154772 0.001797222896184311 0.004088958723692613
93184534 0.001778959328058199 0.004037532359127261
93214296 0.0019199738025553164 0.003963646062447014
93244058 0.0019251331233287408 0.003907899671208982
93273820 0.0020627000638749793 0.0038297840339535324
93303582 0.002132396726695947 0.003753625783158811
93333344 0.0022147121561179634 0.003671286252562153
93363106 0.0021953255831026535 0.0036593855424471035
93392868 0.002159803850804496 0.003648702667523432
93422630 0.002140547889893573 0.0036336118539103167
93452392 0.002133206808301806 0.0036079624995300945
93482154 0.0020894011021480603 0.0035922487590735264
93511916 0.0020948485289297536 0.003566392618052008
93541678 0.002074520850043699 0.003539112914164551
93571440 0.002029724244312316 0.003515959621166338
93601202 0.002029325220723278 0.0034835533131732906
93630964 0.002067874813710783 0.003420401950720918
93660726 0.002094424116253689 0.0033605310300645766
93690488 0.002164859693194505 0.0032767651871030605
93720250 0.0021968207509791646 0.003212521891738784
93750012 0.002249797329107385 0.0031273988960390377
93779774 0.002308879629858996 0.0030457249554193943
93809536 0.0023013832717610093 0.0029803250209151323
93839298 0.0023826114087482256 0.0028867667575415276
93869060 0.002428293660211659 0.0027892117920201276
93898822 0.002468622055280111 0.002700772820170422
93928584 0.0024622140240497118 0.002623514373604686
93958346 0.0024872858310377903 0.002543621211303127
93988108 0.002449703514474607 0.002477952227015551
94017870 0.0024860350720294277 0.002368481856243167
94047632 0.002460235902066499 0.0022944025917252817
94077394 0.0025058530319823098 0.0021752951691276735
94107156 0.0024915777590014333 0.0021021250637973253
94136918 0.0025059961412741806 0.0020007147026856555
94166680 0.0024782205203599888 0.0019124760502399214
94196442 0.002598440129128064 0.0019390107653895552
94226204 0.0026786794472644614 0.00197190268485165
94255966 0.0028317341890778643 0.001990095216361278
94285728 0.0029445439806713306 0.0020212977151129693
94315490 0.003084730815398322 0.0020718234746831274
94345252 0.0032499955081207637 0.0021076004281315288
94375014 0.003396699206137041 0.0021948574410075353
94404776 0.003564898749202904 0.002256142458463792
94434538 0.00377821475288901 0.002360872166339606
94464300 0.003655102034400253 0.002097815118477613
94494062 0.0033854434018422345 0.0016828873751662792
94523824 0.003149155945143098 0.0013631807175340184
94553586 0.0029227331595233818 0.0010682271153467753
94583348 0.0027041538449350476 0.0008218821666800884
94613110 0.002511206727352416 0.0006021415617453271
94642872 0.0023349769314587824 0.00041662297690312264
94672634 0.002150508648432891 0.0002385221728005552
94702396 0.0019988013880696868 7.784999328891892e-05
94732158 0.0018770168249243992 -5.1478195563825636e-05
94761920 0.00179758698494563 -0.0001544310879033008
94791682 0.001713075300515781 -0.0002620559050432588
94821444 0.0016024552226964037 -0.0003779092595131557
94851206 0.0015287279630029178 -0.00047891927837381376
94880968 0.0014205828906733646 -0.0005989305286912289
94910730 0.0013241248020505539 -0.0006979738446437136
94940492 0.0012199748761321507 -0.0007699353085827665
94970254 0.001127638695688977 -0.0008617846646765716
95000016 0.0009965480867297073 -0.0009485036992705848
95029778 0.000908740683821892 -0.0010518890014492798
95059540 0.0008035991916607427 -0.0011543854332102105
95089302 0.0006843013717958249 -0.001230074961629891
95119064 0.0005819948679192635 -0.001341108905863312
95148826 0.00046527667677937726 -0.001418264436947047
95178588 0.00033818692592888633 -0.0014867419949649483
95208350 0.000228808360006013 -0.0015736888497063616
95238112 7.618416756641252e-05 -0.0016530427566340336
95267874 -5.15067289472691e-05 -0.001728256723393775
95297636 -0.00018899917551126034 -0.0018000420684709437
95327398 -0.0003468396796769818 -0.0018522661164994346
95357160 -0.0005113844732883225 -0.0018977348117821073
95386922 -0.000649394094593948 -0.0019506612767084997
95416684 -0.0008158899689672078 -0.001987843826490107
95446446 -0.0009604349895399406 -0.002025961245008322
95476208 -0.0011352620047327684 -0.0020513137392968003
95505970 -0.0012894355314325178 -0.0020625869591593513
95535732 -0.0014341255146631043 -0.002091712240851028
95565494 -0.001615802589869659 -0.00209393738423681
95595256 -0.0017887391615274662 -0.002086614648297223
95625018 -0.001965530722982992 -0.002084562658633377
95654780 -0.002122382004588273 -0.002062638745574743
95684542 -0.0023002563412529943 -0.0020379477315950354
95714304 -0.0024582352306043555 -0.001990197206030709
95744066 -0.002627417246831875 -0.001958315207742766
95773828 -0.0028101648945588987 -0.001896917882558985
95803590 -0.002952024238362376 -0.0018180627562409775
95833352 -0.0030983907475590432 -0.0017943174624730762
95863114 -0.003223336410961764 -0.0017011533547649
95892876 -0.0033421968828433175 -0.001600880912916668
95922638 -0.003457520598834498 -0.001547718227213841
95952400 -0.003567131361036012 -0.0014523428286313453
95982162 -0.0036728960168334697 -0.0013657639639696156
96011924 -0.0036647557857601236 -0.0022818692171606546
96041686 -0.0038733311500439797 -0.0011596710164959378
96071448 -0.003955045799870857 -0.0010784375638345153
96101210 -0.004035199259607816 -0.0009572234565938939
96130972 -0.004137056574645387 -0.0019439623517748215
96160734 -0.004255699066975518 -0.0009086013337465901
96190496 -0.00433224348315275 -0.0007275620105963392
96220258 -0.0044306256657640234 -0.0006730316042225537
96250020 -0.004513605288987687 -0.0005685735747518298
96279782 -0.004559678303773215 -0.00037598933762233284
96309544 -0.004718484762168402 -0.00040927772545968174
96339306 -0.00478370417003268 -0.000309309282679479
96369068 -0.004920989926541069 -0.0003352263581361493
96398830 -0.004956236107929906 -0.00013411158270480988
96428592 -0.005031079927925267 -9.852422208055542e-06
96458354 -0.005104626511248678 8.472575164240615e-05
96488116 -0.0047198788231865435 0.0011086955627506638
96517878 -0.004971881764764329 0.0006949970904433289
96547640 -0.005323003559651396 0.00043690105154260255
96577402 -0.005385215010350324 0.0005440606731102158
96607164 -0.005445444374791937 0.0006649622851386223
96636926 -0.004902047272231601 0.0016391533901738144
96666688 -0.005545270161518913 0.0008819741355123216
96696450 -0.005553924663562725 0.0009482607218776239
96726212 -0.005535062894035547 0.0010167262798267786
96755974 -0.0061236356268869864 0.00010906247686127206
96785736 -0.005490841777792889 0.0011472733802829458
96815498 -0.006133052817487476 0.0002373417074980165
96845260 -0.005469773104178495 0.0012606373595394934
96875022 -0.005448352234556032 0.0013143905616758958
96904784 -0.005432542771624843 0.0013365086402439457
96934546 -0.005361800546726866 0.0014550585805350586
96964308 -0.005414120209447006 0.0014710228002125132
96994070 -0.0054295345625058515 0.0015103065781232352
97023832 -0.004787681899947792 0.002237361477977804
97053594 -0.005479299426523513 0.0015762347293858464
97083356 -0.005533792057708688 0.001607561996637145
97113118 -0.006214508514399637 0.0008020874564709418
97142880 -0.005533771329760968 0.0016775174986813023
97172642 -0.004873301898821842 0.002351831902542052
97202404 -0.005587284532461655 0.0017140751482245561
97232166 -0.005575904733318232 0.0017774401856358157
97261928 -0.0056106616620380054 0.001842046729874372
97291690 -0.005580779943155282 0.0019397232563907628
97321452 -0.005571395770984871 0.002023990884266581
97351214 -0.005605467928305617 0.00209220558072659
97380976 -0.005618003717084073 0.0021786428436899414
97410738 -0.005584000772166374 0.0022626962310485126
97440500 -0.0055816193812684226 0.0023381389438347495
97470262 -0.0048410886712004775 0.002967911709220123
97500024 -0.0055690742322156385 0.0024879176485344497
97529786 -0.005606388923303406 0.002559233879776171
97559548 -0.004826671554983647 0.0031577207497977527
97589310 -0.00558329053968645 0.0027081280087445747
97619072 -0.005500327315247452 0.0028395283969181906
97648834 -0.005622469442223988 0.0028335320689294205
97678596 -0.005595958595404337 0.0029239993604023556
97708358 -0.004820845639263146 0.0034730140820320374
97738120 -0.005606554127414409 0.0030533059466537485
97767882 -0.005617765592445695 0.0031349539779444396
97797644 -0.006382126956236078 0.0026559417264783265
97827406 -0.005488900264464342 0.003268607394982434
97857168 -0.005379534648198638 0.0033656328436682133
97886930 -0.005302541410230621 0.003441361415497622
97916692 -0.005992553216543217 0.003049527297521053
97946454 -0.00512109272518902 0.003580742796655457
97976216 -0.005796717227265289 0.0032050886023744767
98005978 -0.0042484842842215025 0.004046077079626231
98035740 -0.0048819291766498425 0.0037404060165431574
98065502 -0.004885344747536879 0.0037808321417049672
98095264 -0.004959987934653979 0.0037979049650126336
98125026 -0.0049949524994944115 0.0038305442454039038
98154788 -0.004341833459532617 0.004192986229997578
98184550 -0.005148648720279414 0.003876080776898583
98214312 -0.005218544149355586 0.003891239001276831
98244074 -0.004537696246938501 0.004249652326694826
98273836 -0.005440805869512238 0.0038912241432960603
98303598 -0.005473377240834757 0.003922954612902358
98333360 -0.005564538977678741 0.003941255888307208
98363122 -0.005570470618531279 0.0039008448760857527
98392884 -0.005506995367141931 0.003928240749535371
98422646 -0.005523361908365699 0.003910314312919229
98452408 -0.0055007919980408606 0.003909587031428981
98482170 -0.005432092517032394 0.003918773474731744
98511932 -0.00546049894002137 0.003895448392724488
98541694 -0.004616591989263622 0.004243403015413559
98571456 -0.005368014637457093 0.0039024056315997337
98601218 -0.006115140554067726 0.0035186384170810096
98630980 -0.005295647673964656 0.003935902004211342
98660742 -0.005241900476186898 0.003989897353887137
98690504 -0.00443453095297971 0.004349173737919051
98720266 -0.00592290356676898 0.0037688200948752556
98750028 -0.005094863421220308 0.004168138146110322
98779790 -0.0050406961184904404 0.004234494540175958
98809552 -0.005053888910404057 0.004260012099705298
98839314 -0.00494396649976245 0.0043356129429700995
98869076 -0.004938830652060174 0.004375280876062613
98898838 -0.005618084736684877 0.004168975705103689
98928600 -0.004870581222055319 0.004459879836097782
98958362 -0.005635284446577173 0.004220309901155303
98988124 -0.004949036667336068 0.004490862138978368
99017886 -0.004898919699520878 0.0045553246554017515
99047648 -0.004971357611084438 0.004550826190002574
99077410 -0.004927132440214161 0.004583805086036018
99107172 -0.004942502934584411 0.004616178929682802
99136934 -0.004999644518581189 0.00461607044196536
99166696 -0.005014469174907078 0.004643076246270005
99196458 -0.004960380880727017 0.004645994574996689
99226220 -0.004959583415896352 0.004631054277017891
99255982 -0.005019957602654971 0.004605761797523936
99285744 -0.005467623988873434 0.004635587483448924
99315506 -0.005008770988201162 0.004574481554947606
99345268 -0.005011074715346757 0.0045481174118089706
99375030 -0.0049407135792930434 0.004552363938632608
99404792 -0.0049973880263579785 0.004530731453109009
99434554 -0.0048077730538147335 0.0045123985870108236
99464316 -0.004891853279700808 0.0045528546636713334
99494078 -0.004853755729016377 0.00462087580535783
99523840 -0.004715826781450295 0.004705065255378701
99553602 -0.004621295571249762 0.004778710268265001
99583364 -0.005212058155950268 0.004630900184300358
99613126 -0.00376554644487313 0.00506484466515314
99642888 -0.004372842016591839 0.004949293210354238
99672650 -0.004279389996648582 0.005004746499327426
99702412 -0.004835954065141631 0.004889467554410823
99732174 -0.00414695534452987 0.005083409997045125
99761936 -0.0040236667782961475 0.0050996890396226
99791698 -0.003782366187300402 0.004955605878093954
99821460 -0.004267343794538979 0.005014162279660656
99851222 -0.004371242065129894 0.0049769281426006486
99880984 -0.004991562846290053 0.00479824961509193
99910746 -0.004389137128528065 0.004936047430852481
99940508 -0.005068232376003986 0.004731672895404977
99970270 -0.0044610618006901345 0.004872039264542654
100000032 -0.0045038489797543544 0.004854481115431899
100029794 -0.0044707421341573005 0.00485597667152434
100059556 -0.004449310437418048 0.004878103025214086
100089318 -0.0044398227751730746 0.004887726465794569
100119080 -0.0044219209431123375 0.004905410384766994
100148842 -0.004399252284934448 0.004923356441919956
100178604 -0.004388504150106802 0.0049391827408978815
100208366 -0.004363324171428622 0.004948113768859988
100238128 -0.00435738402022379 0.004965784594844936
100267890 -0.004327114177723276 0.004980182451646782
100297652 -0.004329603667888754 0.004990669026587885
100327414 -0.004324449808182289 0.004989986538032765
100357176 -0.004320853845964408 0.004993116733438298
100386938 -0.004321111928270771 0.005006155498421514
100416700 -0.004318812133389886 0.005012958680475178
100446462 -0.004321887898147304 0.0050221786917506814
100476224 -0.004323388585773361 0.005019270798673718
100505986 -0.0043215702915461235 0.005024979680284258
100535748 -0.004322417150086253 0.0050315988698388285
100565510 -0.004337716903563708 0.005056845588346416
100595272 -0.004382973786120336 0.005098332322483324
100625034 -0.004432088481902878 0.005130841713469011
100654796 -0.00447620344923323 0.00517403691775302
100684558 -0.004530490530368317 0.00521987408141569
100714320 -0.004582591671145803 0.0052483628090857675
100744082 -0.004627955405075702 0.005289151840633203
100773844 -0.00468372935923722 0.005331928407789801
100803606 -0.004740942667124024 0.005375925681623173
100833368 -0.004788811134199966 0.005415596926080654
100863130 -0.004733956982702246 0.005410928886960081
100892892 -0.0046790909861558596 0.005413734362284293
100922654 -0.004623729856518399 0.0054111487771274416
100952416 -0.004577265118753143 0.005395606105372933
100982178 -0.004517185713287248 0.00538710824425946
101011940 -0.0044632234618742885 0.005382608307694333
101041702 -0.004403614665170622 0.005378351774057151
101071464 -0.004363510207836829 0.0053564735103492495
101101226 -0.004300808413151632 0.005356612359267554
101130988 -0.004302686324810736 0.005357822452401887
101160750 -0.004293930042282503 0.005350577222659807
101190512 -0.004304863001528156 0.0053419454898627995
101220274 -0.004304359138428247 0.0053304299592425285
101250036 -0.004292849010601189 0.005337148287282008
101279798 -0.004304642568274362 0.005333632773165811
101309560 -0.0043070455356338105 0.005323369482352828
101339322 -0.004304887356142782 0.00531553584831193
101369084 -0.0043037623746477365 0.005315852856067848
101398846 -0.004287040579038353 0.00533609319950056
101428608 -0.004223030583908213 0.0053948074134536434
101458370 -0.004166101282598604 0.005461138350640687
101488132 -0.0041069615246440115 0.005526528566063662
101517894 -0.004040920639631674 0.005580838734877844
101547656 -0.003983404240490787 0.0056458895620325
101577418 -0.003909852962790067 0.005695121979054042
101607180 -0.003847901283590683 0.005750754852372344
101636942 -0.003780263002453386 0.005814651867589455
101666704 -0.003704249948093487 0.00587366328733037
101696466 -0.003793125935581968 0.005813106939278048
101726228 -0.00388901881628167 0.005769358773201888
101755990 -0.0039753857937030925 0.005710447825059115
101785752 -0.004070679800019993 0.005648775696323609
101815514 -0.004156411511553921 0.00558608908454699
101845276 -0.0042435401025795695 0.005523227626811801
101875038 -0.00431573009714619 0.0054543343436595495
101904800 -0.004398472589841426 0.005381640303551181
101934562 -0.004474711709171073 0.00530680802677229
101964324 -0.004442535947490544 0.005318617825361151
101994086 -0.004355488342822082 0.005372264035879
102023848 -0.004265275175889042 0.0054314638790950226
102053610 -0.004186403883607714 0.005468698633260469
102083372 -0.003312370295425551 0.005419070100456894
102113134 -0.004013552405974284 0.005566542337394141
102142896 -0.0039199629309531825 0.00559546482829139
102172658 -0.003832539595959669 0.005632066376095256
102202420 -0.0037368058344170937 0.005667669996777197
102232182 -0.0037039550889631334 0.0057000823462917205
102261944 -0.003794032585943735 0.005721241608560801
102291706 -0.0038857972259954674 0.005748226593452224
102321468 -0.003973220278582335 0.005778637757810121
102351230 -0.0042342823848533955 0.0058323799125868415
102380992 -0.004164459337947583 0.005812574536529304
102410754 -0.004430764440021769 0.005867366718741979
102440516 -0.004364577505386505 0.005845844442958028
102470278 -0.00446874497992719 0.005871651644741536
102500040 -0.004567087239158143 0.0058749759814957355
102529802 -0.00451213505338767 0.005897973795499864
102559564 -0.004447520648553672 0.005916835906632452
102589326 -0.004403591805708993 0.005927077528672221
102619088 -0.004337595745773121 0.005946595085920438
102648850 -0.004279676956873597 0.005955708942104038
102678612 -0.0042173313804172935 0.005978241425747018
102708374 -0.0041687321525557125 0.005989650348499548
102738136 -0.0041112688970756745 0.006000573330028565
102767898 -0.004056571007485038 0.00602097742815435
102797660 -0.004035673965769761 0.006005904840788616
102827422 -0.0040192074212768 0.005977872856778461
102857184 -0.00400575251068331 0.005941624040066482
102886946 -0.003991216459727984 0.0059119116997119825
102916708 -0.003977876937888617 0.005890821590469525
102946470 -0.003962519895254191 0.005857262558697691
102976232 -0.003948689069403418 0.005832981870806623
103005994 -0.003937425076073109 0.00579599902217361
103035756 -0.003923723464419729 0.005779208309731553
103065518 -0.003912305299202385 0.005760465402536995
103095280 -0.003914515961659815 0.005790342167075481
103125042 -0.003915210398763998 0.005818759160437847
103154804 -0.003921452419502442 0.0058424886056019625
103184566 -0.003926304040504386 0.005864894617135083
103214328 -0.003935614343111877 0.005894215544510177
103244090 -0.00392818747919149 0.005913948936338374
103273852 -0.003925237336116076 0.005948023814912275
103303614 -0.003932524948062805 0.005980912386859714
103333376 -0.003944336709972569 0.0060022241037573495
103363138 -0.0038435229303764246 0.006001947150332474
103392900 -0.0037566979763047448 0.00599606793364589
103422662 -0.0036676380440961447 0.0059843603490506965
103452424 -0.003588017960737496 0.005977627389756275
103482186 -0.003494906384483763 0.005969717012345182
103511948 -0.0034093730441198383 0.0059565953293194375
103541710 -0.0033350613563089618 0.005948459325722799
103571472 -0.003246780616433541 0.005937679224210998
103601234 -0.00317192908718052 0.005922390562629805
103630996 -0.003181239748603044 0.005917837613126603
103660758 -0.003217079108120131 0.005908385404955123
103690520 -0.003277841763319365 0.005903366915612465
103720282 -0.0033207182355435906 0.0058968819253079055
103750044 -0.0033559264494029874 0.005887851088190739
103779806 -0.0034096307304624395 0.005875684334949963
103809568 -0.0034565731650609503 0.0058697702691318755
103839330 -0.0035097081167098304 0.005855162908098338
103869092 -0.003553934896790787 0.005843477485171738
103898854 -0.0036001628995550503 0.00583984467883145
103928616 -0.003641827903670807 0.005866395073368722
103958378 -0.0036783798831787856 0.0058842392645929
103988140 -0.0037191536884376556 0.005908791812725665
104017902 -0.003752916510379592 0.005926751220616563
104047664 -0.003801517892000345 0.005940508503682262
104077426 -0.0038424202131393972 0.0059689368426163476
104107188 -0.0038873975614458693 0.005992626519986041
104136950 -0.0039280953941966115 0.006012547083067388
104166712 -0.0039721312048317334 0.0060327760451930265
104196474 -0.003960198891447805 0.006078869086668119
104226236 -0.003945878984785796 0.0061179953194482025
104255998 -0.003940181478850606 0.006157074648866383
104285760 -0.003926283203854327 0.006203445729187678
104315522 -0.003916468734227384 0.006242574587305839
104345284 -0.0039031398337243737 0.006296428440846401
104375046 -0.0038749600115121443 0.00633410676231442
104404808 -0.003869998821772089 0.006387106460485035
104434570 -0.0038504021222189938 0.006428365053196926
104464332 -0.0038510758721134893 0.006406092135472094
104494094 -0.0038430559662184925 0.006350929640586378
104523856 -0.003826482529391476 0.006280503528162208
104553618 -0.003740324108821609 0.006220104295117552
104583380 -0.003732047336118512 0.006171231068875473
104613142 -0.003722311945931701 0.006110051284735748
104642904 -0.003709815096528379 0.006058149657564936
104672666 -0.0037023788061859102 0.006003603125825775
104702428 -0.003703459163262372 0.005953368185343097
104732190 -0.0036853257358545107 0.005940518413410745
104761952 -0.00374450150472264 0.006007667689431679
104791714 -0.0037244376415013747 0.006080483015277735
104821476 -0.0037033594382343033 0.006153410684528336
104851238 -0.003689664921039051 0.006226545807559185
104881000 -0.0036663625519665773 0.006301085538298884
104910762 -0.003642618563711587 0.006373255640613014
104940524 -0.0036202277224665334 0.0064469234971979775
104970286 -0.0035971424082892963 0.0065200504692522025
105000048 -0.003574306796974216 0.006595546680456174
