# HZ S RI R 50
90000000 -0.00048599368879837353 0.005355279227790828
90029762 -0.0004555211188672632 0.005390461601744693
90059524 -0.0006812594881334067 0.005405165098650343
90089286 -0.000544442144883286 0.005447710806137235
90119048 -0.0007252602041427876 0.005471915411544109
90148810 -0.0005907634549845846 0.005508602262286114
90178572 -0.0006132825507862353 0.005540652081034961
90208334 -0.0005799118210901652 0.005572700618049951
90238096 -0.0008162031253644316 0.005586708636161582
90267858 -0.0006800107814829257 0.005632625815578292
90297620 -0.0006730924039090993 0.0056075100614366505
90327382 -0.0005953597889198927 0.005569177930104995
90357144 -0.0006180760920690243 0.005516060001547311
90386906 -0.0005406994299058643 0.005474698811883957
90416668 -0.0007160386891042667 0.005418745930751986
90446430 -0.0005399701867020136 0.005385754568516239
90476192 -0.000464237526467804 0.005342631837073539
90505954 -0.00044071764111130627 0.0052947449798850695
90535716 -0.0004618222283545295 0.0052522049343323475
90565478 -0.0003860041341732464 0.005228909610397907
90595240 -0.00039377978505101267 0.005238584076644587
90625002 -0.00035433008838110493 0.0052490675723201015
90654764 -0.00026754667712276055 0.005255362909882907
90684526 -0.00022590767205126923 0.0052698231882828935
90714288 -0.0002314250700309745 0.0052720432663660366
90744050 -0.00018995313114506036 0.005282980353111307
90773812 -0.00010516684816349178 0.005293131657728878
90803574 -0.00010944914460421876 0.005300489171069423
90833336 -2.397158306055767e-05 0.005307801843723267
90863098 1.7388579366798078e-06 0.0052812608629655465
90892860 -1.5221462478570438e-05 0.0052551692171124275
90922622 5.112045007330444e-05 0.005226674880976076
90952384 7.706587124811784e-05 0.005201130327578413
90982146 6.237758076139805e-05 0.005173109846400343
91011908 0.0001264930749315774 0.005149800955682328
91041670 0.00011023374191751985 0.005120801991510829
91071432 0.0001347238220002204 0.005095218388407398
91101194 3.9827746651810485e-05 0.005071908544921264
91130956 0.00019463132742998524 0.005077999159151453
91160718 0.0001338739169976909 0.005108568465477673
91190480 0.00011232972661859796 0.005137664592431133
91220242 -2.4655983992540813e-05 0.005161531827332085
91250004 6.737606209263624e-05 0.0051897708539439015
91279766 -7.027305588553642e-05 0.005208614923638043
91309528 6.350101849964757e-05 0.005247968468329108
91339290 -1.3220845741689625e-06 0.005272049187912646
91369052 1.4387611313708496e-05 0.005305568563401952
91398814 -0.0001599540676779018 0.005306938005672677
91428576 -2.7906074548773455e-05 0.00528120489275656
91458338 1.3383453929268003e-05 0.005259623146618465
91488100 -1.6057965734504558e-05 0.005226783050794017
91517862 -1.0298381107480947e-05 0.005203271774282962
91547624 3.806441519456e-05 0.005175156680492734
91577386 4.4132429121052125e-05 0.005144388078833827
91607148 1.6723556258884585e-05 0.005119392725598333
91636910 2.471206147692855e-05 0.005097139311346185
91666672 6.626995474289748e-05 0.005069116460955698
91696434 0.00011221840248617267 0.005069671633268668
91726196 0.00022438364096847335 0.005073586232826079
91755958 0.0002971742679588297 0.005075206628278551
91785720 0.0003455057727451408 0.005074202820785852
91815482 0.00045301547001712567 0.005071631240764671
91845244 0.0005337282982402857 0.00506166481414802
91875006 0.0005776700796379543 0.005057925461458229
91904768 0.0005581226976961962 0.005048158251496921
91934530 0.0007389013008108722 0.005033417938346911
91964292 0.0007732913300279163 0.0050408448965617615
91994054 0.0008197977663532884 0.005051216253397766
92023816 0.0006959598760153334 0.00507099577509291
92053578 0.0008082024201595546 0.0050812984743880164
92083340 0.0008189099681927563 0.005094798577518858
92113102 0.0008629747729625367 0.005107540181695917
92142864 0.000843722872072669 0.005118624457964174
92172626 0.0008846965845132497 0.005137540983941975
92202388 0.0007737957185128148 0.005151595932853507
92232150 0.0008745476524738967 0.005133910919580968
92261912 0.0007642879117884778 0.005084215948620711
92291674 0.0008764466580038056 0.005032376874557594
92321436 0.0008320267411822294 0.004971323920720686
92351198 0.0008497892386319459 0.004920512511360241
92380960 0.0008058368736669292 0.0048728856720525624
92410722 0.0008007393124611161 0.004816642300324501
92440484 0.0008156385932691854 0.004765070388700435
92470246 0.0008095157048670937 0.004711948689332361
92500008 0.0007723575095345216 0.004660825278389854
92529770 0.000782056356367491 0.0046739499496061985
92559532 0.0008196654724062707 0.0046804881853361015
92589294 0.0008102299072822813 0.004687568407328127
92619056 0.0008450366450927349 0.004697631149546062
92648818 0.0008572380329728095 0.004704095019993315
92678580 0.0008433471489423984 0.004717498706260882
92708342 0.0008802647240585818 0.004721539822693697
92738104 0.0008915607573918366 0.004733474224246569
92767866 0.000882995507555788 0.004734510780466538
92797628 0.0009382051295080075 0.004730389463176668
92827390 0.0009582550362963629 0.004719196773216611
92857152 0.0010026431512303866 0.004706983354046702
92886914 0.000969868395887897 0.004694332854274339
92916676 0.0011116273489222349 0.004682444869337226
92946438 0.0011299278158095178 0.004665896303718812
92976200 0.0011717987988241296 0.004653144461819448
93005962 0.0010194392308028235 0.004697320277056051
93035724 0.001258345043549896 0.0046165636574314415
93065486 0.001256837321067566 0.004594322785088092
93095248 0.0014293409575658487 0.0045454893494758794
93125010 0.0014916799037508826 0.004505215549166178
93154772 0.0015890606995833825 0.004453521778053027
93184534 0.0015826663068436797 0.004409076211689981
93214296 0.0017283194777624915 0.004353080989202173
93244058 0.001740669380477375 0.0042958041528358
93273820 0.0018836542178860126 0.004236024759351667
93303582 0.001961193299021894 0.004175160249466659
93333344 0.0020539177351704325 0.004110182993115814
93363106 0.0020237142429460533 0.004104641288410331
93392868 0.001983740070657921 0.004099650262441108
93422630 0.001955705790968244 0.004093395250966253
93452392 0.0019520216284361568 0.004081859437544227
93482154 0.0019118728666054578 0.004068151123549679
93511916 0.0019029493814166209 0.004052222711128228
93541678 0.001881427569501991 0.0040377351470181014
93571440 0.001838109403095704 0.0040268954777074525
93601202 0.0018311850723599292 0.004004739087736613
93630964 0.0018746788097160289 0.003955374257018377
93660726 0.0019169187269277995 0.003903723815464719
93690488 0.0019934383658447817 0.0038399879899887602
93720250 0.0020401497040653904 0.0037807853276105303
93750012 0.0020931990299609474 0.003724054744263948
93779774 0.0021731300831825374 0.0036495119953801752
93809536 0.002155880713754838 0.00360108656438511
93839298 0.002264554924911871 0.003521841997198055
93869060 0.0023233179522290084 0.0034546404462921015
93898822 0.002381215313955864 0.0033695155989055337
93928584 0.0023868862538400453 0.0033099040301607205
93958346 0.0024191610447407337 0.0032385861710810377
93988108 0.002382859808993725 0.0031821469527166116
94017870 0.0024464307019921305 0.00309807918705161
94047632 0.002430922909571339 0.003036331124208805
94077394 0.0025002745214380783 0.0029402146134887733
94107156 0.0025019504808169385 0.0028603079906562084
94136918 0.0025372928581003304 0.002778799800711984
94166680 0.0025342268740004416 0.0027087340678429534
94196442 0.0026535874858159545 0.002786985851309862
94226204 0.0027373120745214194 0.0028955186115595427
94255966 0.002914697879945529 0.002967067213402813
94285728 0.003048647953577254 0.0030895918045911255
94315490 0.0032066597768601363 0.0032174365798543756
94345252 0.0033786893115218745 0.003359277408920196
94375014 0.0035596895318989463 0.003543870668478726
94404776 0.003766069831761604 0.0037375994062960947
94434538 0.003953467467035265 0.003985373051905529
94464300 0.0038674032433145874 0.00371849962850075
94494062 0.003678599110183756 0.0032100995378697233
94523824 0.0034950943066167335 0.0027722934677355407
94553586 0.0032970442578632185 0.002396216309699085
94583348 0.0031373174467281472 0.002080513757475002
94613110 0.002947759402203645 0.0017978144832324235
94642872 0.0027952399911295627 0.001531216869569422
94672634 0.002663715173727448 0.0013056651860202677
94702396 0.0025186859791255793 0.001092181664025643
94732158 0.002407535850783047 0.0009300421714012997
94761920 0.0023587253682340746 0.0008018593603218649
94791682 0.0023224763290689327 0.0006956662701079478
94821444 0.00226814182932794 0.0005630734746883603
94851206 0.002231767556285439 0.000444242886586829
94880968 0.0021635533124704552 0.0003166644924742852
94910730 0.0020925010740638138 0.00019298065519092158
94940492 0.002040926458748526 6.359879771013322e-05
94970254 0.001983015201648777 -1.663955539142745e-05
95000016 0.0018990072010005227 -0.0001492741508744489
95029778 0.001841047899997228 -0.0002557466378715837
95059540 0.00179048089271383 -0.00036635763242385687
95089302 0.0017196279837857797 -0.00048326459007482566
95119064 0.0016456688011543127 -0.0005876699419089358
95148826 0.0015977328553808642 -0.0006954329456354209
95178588 0.0014872268457038636 -0.0008149410970670123
95208350 0.0014031998354868773 -0.0009358268461323403
95238112 0.001311514072242868 -0.0010401158051113234
95267874 0.0012247007020962123 -0.001148541370560384
95297636 0.001103301907534569 -0.0012667745389293927
95327398 0.0009832803551816979 -0.0013720867885107573
95357160 0.0008564519666376674 -0.0014761154052854194
95386922 0.0007364725264606211 -0.0015866527425809258
95416684 0.0005801376430970428 -0.0016687587382258028
95446446 0.0004652847871004316 -0.001754796315928467
95476208 0.0003001607612180164 -0.0018550063366475538
95505970 0.00017111826427051714 -0.001926275021806541
95535732 3.818853681905992e-06 -0.002007339796276681
95565494 -0.00015596758819324272 -0.002066526243884947
95595256 -0.00032968309656476643 -0.002135319495288436
95625018 -0.0005041720951600395 -0.002194132847454943
95654780 -0.0006891916933015827 -0.0022475557601750774
95684542 -0.0008929433525105813 -0.002262365999144448
95714304 -0.0010661192423855272 -0.0023046845017645756
95744066 -0.0012579491817642787 -0.002326943237071316
95773828 -0.0014401971432705693 -0.0023271076598110527
95803590 -0.001632597104787917 -0.0023058632555658476
95833352 -0.0018271696507181263 -0.0023263562597705526
95863114 -0.0020192623151012693 -0.0022735649825365426
95892876 -0.0021510388324334304 -0.0022361565725873586
95922638 -0.002322663305557289 -0.002199591110933665
95952400 -0.002465179825281002 -0.002130917333663536
95982162 -0.0026105507082148896 -0.002080020437578595
96011924 -0.0022967419813909895 -0.002821121456333418
96041686 -0.0028499007752706917 -0.0019461051877562162
96071448 -0.0029870892799910816 -0.0018621755877279397
96101210 -0.003119472180954976 -0.0017951279269806627
96130972 -0.0029649874240978355 -0.0026474753970954063
96160734 -0.0033950225013520794 -0.0016585160757074517
96190496 -0.003564794801134668 -0.0017889010958784131
96220258 -0.003688233692962357 -0.0015639929135782638
96250020 -0.0038247066831111724 -0.0014639257494652473
96279782 -0.003951067392079281 -0.0013983696144082606
96309544 -0.0040816693713392775 -0.0013278969568225952
96339306 -0.004196677143947318 -0.00123536084805398
96369068 -0.004333137972022181 -0.0011674706391837139
96398830 -0.004448977162252319 -0.0010778640479090736
96428592 -0.004553950061412325 -0.0009582353561072609
96458354 -0.004679118885654527 -0.0008552796365394159
96488116 -0.004525755473910381 0.00025119018198121925
96517878 -0.004900598495999944 -0.0006131509835818097
96547640 -0.004985498335446164 -0.0004936779177496881
96577402 -0.005099432799081066 -0.00038217106612128954
96607164 -0.0051849727309796955 -0.00023574361485267207
96636926 -0.004837743521307454 0.0008505559419217447
96666688 -0.005368535956448577 3.2652306679298093e-06
96696450 -0.005362021213995748 0.00010714224268663756
96726212 -0.005388912427424315 0.00017394607053248146
96755974 -0.005824671204183936 -0.0008751326075928862
96785736 -0.005420166181687453 0.0003465709719473467
96815498 -0.005891486525719874 -0.0006786316937738573
96845260 -0.005404143575059337 0.000506113743701613
96875022 -0.005397919730308313 0.0005867102520248879
96904784 -0.00540732540691484 0.0006289315764693707
96934546 -0.005346203128712255 0.0008000169032997042
96964308 -0.005407008942599103 0.0008100692195451717
96994070 -0.005444380713553159 0.0008624804342379183
97023832 -0.004859978046553366 0.0016913150849274603
97053594 -0.005496155403160835 0.0009628541214432069
97083356 -0.005540877086420027 0.0010001242465648747
97113118 -0.006168853275766822 9.700621582960962e-05
97142880 -0.005571107215767944 0.0010990363145129286
97172642 -0.004967722648828033 0.001890383775627102
97202404 -0.005639108938876153 0.001156108541948433
97232166 -0.005638446052662645 0.0012389319406498815
97261928 -0.0056747996567818775 0.001311047285851717
97291690 -0.005667666568463036 0.0014383209351763614
97321452 -0.005674892436183235 0.0015195071185456596
97351214 -0.0056875814997542325 0.0015966018607121548
97380976 -0.005704783324375974 0.0016790701689181132
97410738 -0.00567692767033665 0.0018102221335390039
97440500 -0.00569284922108736 0.0018893254260391207
97470262 -0.004955119420101199 0.002600001302220121
97500024 -0.005681736248116293 0.002073227839215292
97529786 -0.005719985362658121 0.002126674530433832
97559548 -0.004960506736178905 0.0028251471949236645
97589310 -0.005709704422418965 0.0023174218157750595
97619072 -0.005642941651976678 0.0024581013927183052
97648834 -0.005759428011743988 0.0024537230519142686
97678596 -0.005730058667692742 0.0025605808013386484
97708358 -0.004960346229535674 0.003175669445560423
97738120 -0.005744302482461106 0.0027109973625673617
97767882 -0.005739924161355411 0.0027820542686291193
97797644 -0.006502804112701215 0.0022605858380573673
97827406 -0.005632028524939988 0.002958499350441826
97857168 -0.0056006028794891105 0.0030116424092835286
97886930 -0.005431711306298149 0.003128085100739662
97916692 -0.006116497595992801 0.002712451559025565
97946454 -0.005248738158327785 0.003300800123850942
97976216 -0.005931619882294607 0.0028961710274959893
98005978 -0.004361312927635892 0.0038202612172148456
98035740 -0.0050053390214198756 0.0035122538087272205
98065502 -0.004909512036371398 0.003576979705715185
98095264 -0.0050637815961074644 0.003555117277884685
98125026 -0.005206779865704556 0.0035700728156892398
98154788 -0.004444360411705023 0.003984893394366481
98184550 -0.005359720530781075 0.0036205938459800626
98214312 -0.005338167821287642 0.00366413170586219
98244074 -0.004740437782877037 0.004033600782461002
98273836 -0.005537971455757579 0.00367161791094434
98303598 -0.0055767474311353895 0.0037011319238941993
98333360 -0.0056529938202906456 0.003709047466280443
98363122 -0.005659055051606789 0.0036886564131413074
98392884 -0.005596726933347195 0.0037156425690331846
98422646 -0.005627427446423637 0.00368937339749837
98452408 -0.0055945730754831755 0.003680202742305101
98482170 -0.005520968308344955 0.003713412433109242
98511932 -0.005541382324967996 0.003689384638571793
98541694 -0.004696031101525493 0.004074123266634758
98571456 -0.005442477810067855 0.003701166595848564
98601218 -0.006193988346337286 0.0032802700531434177
98630980 -0.005365444680982332 0.0037374294375334036
98660742 -0.0053269343292713005 0.003800467252493908
98690504 -0.00451589453923465 0.00420613628121752
98720266 -0.006007186141711996 0.0035675553096480256
98750028 -0.005186713119164468 0.003997776890576036
98779790 -0.005138003389979956 0.004057345477537151
98809552 -0.005131682910081458 0.00410238773375263
98839314 -0.005029993193547594 0.004170878241967516
98869076 -0.0050329115470687785 0.0042132274551511355
98898838 -0.005705947299996123 0.003975823472337866
98928600 -0.004954984018631608 0.0042981613123108595
98958362 -0.005720666780667932 0.004031978149108341
98988124 -0.0050311864439041305 0.0043321771914891114
99017886 -0.00495192421839172 0.004379888377532016
99047648 -0.005011025493217032 0.004378333275542347
99077410 -0.004972200135567074 0.004420033632896278
99107172 -0.004991463822890254 0.004452877106125237
99136934 -0.004844870303657488 0.004463312188205195
99166696 -0.005057104678049234 0.004472238500799155
99196458 -0.005008022619269392 0.004474321731399291
99226220 -0.004995290881186525 0.004462306790806625
99255982 -0.005059935546898178 0.004435621968531289
99285744 -0.004986221228504075 0.0044367045182738965
99315506 -0.005050811416166912 0.00440401309119537
99345268 -0.005038609345589758 0.0043967200495962765
99375030 -0.004978195665109553 0.004392388570053787
99404792 -0.005039192996682495 0.004365009011151096
99434554 -0.005027040510249578 0.004342036365902151
99464316 -0.00501148901713649 0.004394847936734581
99494078 -0.004885617860470498 0.004468880777626688
99523840 -0.004742751179935567 0.004558960280273276
99553602 -0.004672465896079458 0.004627814196626708
99583364 -0.005243795193480733 0.004478167684826729
99613126 -0.003799502364215972 0.0049503482923773864
99642888 -0.004405651747503414 0.004807365603523412
99672650 -0.004321233847990684 0.004864458921654654
99702412 -0.0048750992553135515 0.0047409645696602784
99732174 -0.0041888917307346535 0.004955539775861933
99761936 -0.004057675243259925 0.004969691924672834
99791698 -0.004335395318294191 0.004900554566027537
99821460 -0.004308443051241383 0.004883393184276432
99851222 -0.004315251984241225 0.0048443334338961344
99880984 -0.005036967893300863 0.004644559262767153
99910746 -0.004422903175341324 0.004795898644555495
99940508 -0.005110378737959606 0.004576202488818269
99970270 -0.0044930377238842426 0.004736902747068649
100000032 -0.0045341447680444895 0.004712241278522515
100029794 -0.00451801730806567 0.004720351145048283
100059556 -0.0045074654899780655 0.004740037008624087
100089318 -0.004482419050545508 0.004758366707030265
100119080 -0.0044659248290239715 0.00477983450227728
100148842 -0.004444309033343447 0.004782190602507098
100178604 -0.004425823755216148 0.004805864517413389
100208366 -0.004403078632801746 0.004811466899175194
100238128 -0.0043845896839046225 0.004836453978968173
100267890 -0.004369196256489795 0.004851913181876989
100297652 -0.004359124735961021 0.004861850714886185
100327414 -0.004367565942132597 0.004867519634026646
100357176 -0.0043678630653131555 0.004869336575295001
100386938 -0.004369384713895393 0.004880417282177574
100416700 -0.004357407939218936 0.0048866388921356895
100446462 -0.00436421737983313 0.004892411267676375
100476224 -0.004363655297196317 0.004898925694029269
100505986 -0.004361009350887508 0.004899881229852102
100535748 -0.004367820942182588 0.004912616420615583
100565510 -0.004380674799352549 0.004937759401641866
100595272 -0.004427634498160347 0.004968723767736741
100625034 -0.004477669625026081 0.005008980586932561
100654796 -0.0045201511115310075 0.00505335502132775
100684558 -0.004574735849188124 0.005095574471066856
100714320 -0.004623000393103118 0.005124779749969451
100744082 -0.004675419792779385 0.005179318919550346
100773844 -0.004727173061121854 0.005213397495232813
100803606 -0.004779880880086754 0.005246810804838178
100833368 -0.0048461992185792075 0.005294131178500336
100863130 -0.0047882560513515995 0.005288100682078325
100892892 -0.00474073576655244 0.005280705650761509
100922654 -0.004675714460501749 0.005278360788150504
100952416 -0.004614866607536556 0.005272367581022997
100982178 -0.004562774213003484 0.005270398795012175
101011940 -0.004502286194138058 0.005260738941564633
101041702 -0.004459145761613448 0.005262018006375666
101071464 -0.00441191745381583 0.005254547628143826
101101226 -0.00435815553107707 0.00524828689801435
101130988 -0.004344674366974482 0.0052420732376623124
101160750 -0.004332021463095713 0.0052410628875629904
101190512 -0.004346676222378497 0.005231001741863524
101220274 -0.004342198562844398 0.005236236903577235
101250036 -0.0043479294115580484 0.005229281075068933
101279798 -0.004346064500382579 0.005227159778104486
101309560 -0.0043565796574009125 0.005224066003159075
101339322 -0.004351025031617969 0.005219152938518994
101369084 -0.004351938092778452 0.005211924642260588
101398846 -0.004339662015222016 0.005227629304969887
101428608 -0.004277239621882409 0.00529156598038441
101458370 -0.004222835535339942 0.005358220137905365
101488132 -0.004158014534815352 0.005418408596639884
101517894 -0.004091023460646589 0.005486782913922539
101547656 -0.004032935862076619 0.005547792510403414
101577418 -0.003965221396539551 0.005605116679374202
101607180 -0.0038998749561992632 0.005654126463150472
101636942 -0.0038318627144000106 0.005717000189556397
101666704 -0.0037675374982611446 0.005764378374240085
101696466 -0.0038567127173996852 0.0057172489230801725
101726228 -0.003940882851614149 0.005666396703382104
101755990 -0.004024939223306785 0.005614271708791926
101785752 -0.004120304506511792 0.005558263285693673
101815514 -0.0042052462054275866 0.005494868031774897
101845276 -0.0042833620655221205 0.005431054361101512
101875038 -0.004358303700121035 0.00535788216059201
101904800 -0.0044382606291131915 0.005287819816519225
101934562 -0.004519440250372952 0.00521083547984328
101964324 -0.00449865288377869 0.005224055128553828
101994086 -0.004405910143316498 0.005276098200139323
102023848 -0.00432104135953839 0.005324930385160209
102053610 -0.004237894159162309 0.005367854843338955
102083372 -0.004144304891700891 0.005414817767031515
102113134 -0.004064045471405769 0.00545542864329216
102142896 -0.003972667453322498 0.005490755858721792
102172658 -0.0038908950805823695 0.005536130748106355
102202420 -0.00379921139469381 0.005575207463847176
102232182 -0.003770345014854217 0.005596503065717589
102261944 -0.003854304995609805 0.005629253775815416
102291706 -0.0039473385360184994 0.005655788031001745
102321468 -0.004026185715693023 0.005671416874509975
102351230 -0.004587251003114129 0.005678159232536831
102380992 -0.00421155732585744 0.0057212680571297105
102410754 -0.0043168644311315256 0.005724975335528793
102440516 -0.004424481693224719 0.005748506818550075
102470278 -0.004515244654288131 0.005766127653431048
102500040 -0.004617755123087035 0.005774312868461592
102529802 -0.004572594958943311 0.0057922037456577865
102559564 -0.004795730177699504 0.005805739868332642
102589326 -0.004461246018934829 0.005836809830029003
102619088 -0.004401865497675778 0.005854356306263627
102648850 -0.004350140875458926 0.005865527288703976
102678612 -0.00428469502754385 0.005887989481056436
102708374 -0.004240702081246087 0.005896011745487426
102738136 -0.0041744285995593804 0.0059123340186758855
102767898 -0.004126766335818706 0.0059112756290510245
102797660 -0.004089201625241618 0.00591184203839928
102827422 -0.004085177381546661 0.005888376398132037
102857184 -0.00405954358391975 0.005866595325245786
102886946 -0.004058346232586062 0.005827491400144694
102916708 -0.004039134796553492 0.005799023730996508
102946470 -0.004031563939497239 0.005746847700204099
102976232 -0.004007651467265269 0.005743214599333327
103005994 -0.003999907824968855 0.005717304519703592
103035756 -0.003987368280630926 0.005692940234505987
103065518 -0.003977365609702863 0.0056871912803523215
103095280 -0.003976579679134245 0.005707305395803527
103125042 -0.003981368694639895 0.0057380211390343884
103154804 -0.003982435745324498 0.005769382555886217
103184566 -0.003987737528947233 0.00578518680323269
103214328 -0.003989198693545875 0.005818384667290147
103244090 -0.003985398552974135 0.005845449008405549
103273852 -0.003997298088659047 0.005867901655529787
103303614 -0.003996645676655372 0.005910518042543682
103333376 -0.004003864315030517 0.005919905038995345
103363138 -0.003909274366394653 0.00592548412212865
103392900 -0.0038232350449202 0.005922548284017476
103422662 -0.0037303629306232483 0.005912249634094535
103452424 -0.0036484507202475787 0.005912066425792368
103482186 -0.0035619848128089003 0.005903006221496378
103511948 -0.0034816131731447895 0.005895475765663411
103541710 -0.0033944162159884037 0.005893462671827185
103571472 -0.003318967408479833 0.005874344855586314
103601234 -0.0032378840059617553 0.0058653598793925715
103630996 -0.003239219956941822 0.005863772789914707
103660758 -0.003290364763196628 0.00584753646470607
103690520 -0.0033339520649807454 0.005843085754905655
103720282 -0.0033848623989132546 0.005833801346932041
103750044 -0.0034254170753983014 0.005828223958921804
103779806 -0.0034756768984036675 0.005821304697041531
103809568 -0.0035263449855406264 0.005809127632027603
103839330 -0.0035664750207693545 0.005792790097130099
103869092 -0.0036129966384560006 0.005787184525121398
103898854 -0.00366365963932168 0.005780581921105993
103928616 -0.003694818352571259 0.005805407203868809
103958378 -0.0037434346615657483 0.0058209586284733396
103988140 -0.003774448749416185 0.005840252713509421
104017902 -0.003813825808166325 0.00586463792667952
104047664 -0.0038607161855570985 0.005893574705529887
104077426 -0.003899341430054949 0.0059127946206253565
104107188 -0.003943048827852067 0.00593471135511228
104136950 -0.003995090683709053 0.005953382533803854
104166712 -0.004035837859201975 0.0059751722539330455
104196474 -0.004025883624363432 0.006015305419888349
104226236 -0.004010351527737638 0.006061093573511247
104255998 -0.004004606144641576 0.006108821906469424
104285760 -0.003994034181008338 0.0061588538623596496
104315522 -0.003972137606457928 0.006198273356420379
104345284 -0.0039626157843099434 0.006238434206751605
104375046 -0.003953583144749063 0.006292738898420424
104404808 -0.003933778947915182 0.006330944758508864
104434570 -0.003914552573376497 0.006376933112659886
104464332 -0.003921149337795356 0.006357601571914416
104494094 -0.00390707959470471 0.0062944939772781195
104523856 -0.003892018937733214 0.006246395611123224
104553618 -0.0038849558539792825 0.0061803882073150586
104583380 -0.003874971633542377 0.00612750398767066
104613142 -0.003873377473891786 0.006073090252494006
104642904 -0.0038653259736268664 0.0060204921675191024
104672666 -0.003850943509836616 0.005966676888153786
104702428 -0.003837449444435968 0.005917789236517729
104732190 -0.003828387206142323 0.005900075368815618
104761952 -0.0038081235372914436 0.005972608057673747
104791714 -0.0037949736140763845 0.006043887484462801
104821476 -0.0037704897751833486 0.006111821490803852
104851238 -0.003753173532533362 0.006188976836437529
104881000 -0.003729894420909708 0.006254986305878821
104910762 -0.0037084931392607438 0.006328455373229628
104940524 -0.0036804363651771928 0.0064033240989102925
104970286 -0.0036629806103461392 0.006480292154704265
105000048 -0.00362028872683239 0.006559101342298728
