# HZ S RI R 50
90000000 -0.00046835807349586303 0.0053505447012487705
90029762 -0.0004340741420283876 0.005378127275802297
90059524 -0.0006599803818626126 0.0053916536612469475
90089286 -0.0005266228164205926 0.0054343107788134525
90119048 -0.0007028108134385366 0.005459624802036619
90148810 -0.0005689489255028965 0.005500235542131316
90178572 -0.0005910088105432079 0.0055273402445721685
90208334 -0.0005603984073458864 0.005562302463510077
90238096 -0.0007952779942615899 0.005576819630374291
90267858 -0.0006645124993625981 0.005618620161201386
90297620 -0.0006485889272650247 0.005597197792814952
90327382 -0.0005722101250788603 0.0055559817400327605
90357144 -0.0005944407501295794 0.005506596290596934
90386906 -0.000516576743595963 0.005460646479597855
90416668 -0.0006890941322533123 0.005403875915180843
90446430 -0.0005166529161485067 0.005368917680505605
90476192 -0.0004412810383551489 0.005327939394182546
90505954 -0.00041692949732216275 0.0052852785443685026
90535716 -0.00043657219659062787 0.005235177333474637
90565478 -0.0003630807537879045 0.005214840931113177
90595240 -0.0003661555697599982 0.005223473049458081
90625002 -0.00033080472227887064 0.005233197727273137
90654764 -0.00024512949759788425 0.005242964120290864
90684526 -0.00020658933949124558 0.005251803827077447
90714288 -0.00020877046494220886 0.005261907216666387
90744050 -0.00016786987904726875 0.005267601305443911
90773812 -7.550497304278265e-05 0.005277083685389973
90803574 -8.156833913524514e-05 0.005285962260530771
90833336 1.5859857464239272e-06 0.005292826472275131
90863098 2.6561245211534006e-05 0.005263473487856495
90892860 1.0570493113545455e-05 0.0052344098671078905
90922622 7.895153247022202e-05 0.0052109552527038056
90952384 0.0001023905561510026 0.005184660639621147
90982146 8.521362761427495e-05 0.005153423793661423
91011908 0.00015486730454909606 0.0051283858565810796
91041670 0.00013631667786624134 0.0051030259394339176
91071432 0.00016098222616637675 0.00507428281945346
91101194 6.561344773031589e-05 0.005047383971852012
91130956 0.00021919855840032976 0.0050550405889510965
91160718 0.00016033160807879627 0.005084339867674062
91190480 0.00014124147249668009 0.005110487909522923
91220242 2.7903207281377153e-06 0.005140464933753102
91250004 9.944495482865667e-05 0.00517219009125513
91279766 -4.4026684576865195e-05 0.005195589021665792
91309528 9.425653290129732e-05 0.005225631992201606
91339290 2.917177872830653e-05 0.005250239392823871
91369052 4.445194742991214e-05 0.005280533262531565
91398814 -0.0001262818274372459 0.005278435985929765
91428576 -3.6561529184072216e-07 0.0052591945097213355
91458338 4.853289938198996e-05 0.005235657768434835
91488100 1.4848850890108919e-05 0.005201249689590611
91517862 2.2758806248840834e-05 0.005176201909360914
91547624 6.935667132314424e-05 0.005152085989925178
91577386 7.625667203314351e-05 0.0051283909449003386
91607148 4.8063952116317195e-05 0.005096578584537165
91636910 5.75780091333123e-05 0.005068121346237244
91666672 0.00010847258116851631 0.0050432268888983365
91696434 0.00014696102607686056 0.005042449627806095
91726196 0.0002577063374238568 0.0050461588084617075
91755958 0.0003300140220131059 0.00504679783478525
91785720 0.0003779348269448637 0.005044556226046695
91815482 0.0004924609789672397 0.005036980038422007
91845244 0.0005693893722817613 0.005025260038505688
91875006 0.000615955679122016 0.00501746087832907
91904768 0.0005945176699723359 0.0050118328166605134
91934530 0.0007762631637424982 0.0049984823514253405
91964292 0.0008027617725457881 0.005001317244352215
91994054 0.0008553453609744698 0.005015803235048747
92023816 0.0007368230303426607 0.005032606231783633
92053578 0.00084768785325616 0.005039444943509198
92083340 0.0008572341431356866 0.0050522246795726535
92113102 0.0009064356347819239 0.0050622285727377056
92142864 0.0008828524490351392 0.005076291695535086
92172626 0.0009317006611794913 0.005092685413435527
92202388 0.0008145044440209257 0.005099255208118822
92232150 0.0009114428777083314 0.005091869876621009
92261912 0.0008025662218515153 0.005038169822896939
92291674 0.0009148933733740869 0.004983298925107982
92321436 0.0008731227999541275 0.0049306315683915435
92351198 0.0008913434294581805 0.004873738094614576
92380960 0.0008499528553395903 0.004822980352856155
92410722 0.0008443312217990763 0.004769012819463815
92440484 0.0008626942919909578 0.004713737445799932
92470246 0.0008511023731793696 0.004662891428346893
92500008 0.0008194735281108631 0.004610226929482432
92529770 0.0008289507522865849 0.0046186886247441454
92559532 0.0008694630657570077 0.004623041430734377
92589294 0.0008601979071799167 0.004630289240758931
92619056 0.0008968322175776861 0.004638709171723713
92648818 0.0009080987155989232 0.004646453156909867
92678580 0.0008918086012353672 0.004649367193419283
92708342 0.0009333335887809933 0.004657077908616401
92738104 0.000944407071417336 0.0046628871767601604
92767866 0.0009353444359336686 0.004669923621745117
92797628 0.000991009447737094 0.004665470233277771
92827390 0.0010124703358468715 0.004651739883345647
92857152 0.0010533962448448608 0.0046376252745013915
92886914 0.0010211844034250196 0.004619577788807803
92916676 0.0011680152539710247 0.004607175917864274
92946438 0.0011854599847428797 0.004585809546345122
92976200 0.0012288141785383078 0.0045680996023911
93005962 0.0012042617877440845 0.004546444710803674
93035724 0.0013216496004871826 0.004520130298056969
93065486 0.001309834409345228 0.004496080234544278
93095248 0.0014836738795444176 0.004442487322300587
93125010 0.0015402971603580861 0.0043977102509761634
93154772 0.001641366886648075 0.004329026633883705
93184534 0.001634968952183033 0.004304244553265099
93214296 0.0017761502881210255 0.00423869458333324
93244058 0.0017884495021976861 0.004185291810935744
93273820 0.0019264778154513627 0.004112659918706965
93303582 0.001999692668553281 0.0040538589153797135
93333344 0.0020923775949060652 0.003979676216562186
93363106 0.002064319557140475 0.003973006396616438
93392868 0.002024581323714626 0.003967227526301929
93422630 0.0020009442439911833 0.003956292024473488
93452392 0.0019986580310741723 0.003936442449128517
93482154 0.001952486952770406 0.003927449402118873
93511916 0.0019500718892166374 0.003909590641291347
93541678 0.001930366340081344 0.0038830855752174966
93571440 0.0018911325098005618 0.0038674354257894673
93601202 0.0018844738861742746 0.0038419063636328083
93630964 0.0019203327676395458 0.0037905036394018776
93660726 0.0019603421239776614 0.0037348057350517576
93690488 0.0020360900530944754 0.003666322021665578
93720250 0.0020750013137681125 0.003610256927265669
93750012 0.0021294678771424432 0.0035478416163127846
93779774 0.0022014497578017093 0.0034591250093959484
93809536 0.002192530369502954 0.0034065416463178637
93839298 0.002287390132770205 0.0033169634513893773
93869060 0.002338192731291224 0.003240412397735365
93898822 0.002383505543874003 0.0031653214917255657
93928584 0.0023869782000698215 0.0030989289413281143
93958346 0.002417510092814062 0.0030074033249959838
93988108 0.002390739490098234 0.0029535236417385577
94017870 0.0024321733627746156 0.002863300684214094
94047632 0.0024162308106406402 0.0027968139693476395
94077394 0.0024798844736913465 0.002694257876154477
94107156 0.002476145371159379 0.002616996181835589
94136918 0.002489919141330626 0.002523297918723732
94166680 0.0024927022152921663 0.0024463758268279613
94196442 0.0025971504798823868 0.0025032017490715765
94226204 0.0026930104578850485 0.0025835609780419265
94255966 0.0028543955717121048 0.00264046020553222
94285728 0.002979113530985913 0.0027369392356424442
94315490 0.0031216552914826406 0.002835779092394793
94345252 0.0032894003975032864 0.002941053486265581
94375014 0.003436691462108515 0.0030858181555937832
94404776 0.0036550203691551684 0.0032439670655931316
94434538 0.00383230624928245 0.003441271926272739
94464300 0.0037424899205069544 0.003178551626446605
94494062 0.003524300810075876 0.0027265707309257537
94523824 0.003310700643409233 0.0023064887922668153
94553586 0.003097092892201233 0.0019746555773799833
94583348 0.0029260415607615213 0.001652635453961234
94613110 0.0027515465170350178 0.0014127788574922109
94642872 0.0025958479297648017 0.0011712235303296078
94672634 0.0024448601894651424 0.0009516668902163627
94702396 0.002291813390311352 0.0007799425629646274
94732158 0.0021760149813851368 0.0006151901770795236
94761920 0.0021240869989853587 0.0005024829441992152
94791682 0.002071009024629065 0.00037537219777225345
94821444 0.001994011471566077 0.00025722433283030543
94851206 0.0019389261077032303 0.00017835640682210678
94880968 0.0018433116207641994 4.175420303508989e-05
94910730 0.0017581955395194466 -6.72150127431098e-05
94940492 0.0016947400197964016 -0.00017617274406696017
94970254 0.0016192718620782298 -0.0002862967449917845
95000016 0.0015214807714247485 -0.00040469877462212783
95029778 0.0014607057664701925 -0.0004922337885160715
95059540 0.0013840541588043401 -0.0005948832408392152
95089302 0.0012883262131745481 -0.0006992676647918582
95119064 0.0011795039031435907 -0.000787584771344975
95148826 0.0010910626251487208 -0.0008895401669617916
95178588 0.0009914974061714405 -0.0009909657528427804
95208350 0.0008760840116236161 -0.0010833837199944495
95238112 0.0007674471483939784 -0.001167271913839308
95267874 0.0006568361584767424 -0.001272932570381716
95297636 0.0005384620050119045 -0.0013613903521360522
95327398 0.00040120475826821585 -0.0014460217684524868
95357160 0.0002884714395490622 -0.0015337820021410844
95386922 0.00013023394463205533 -0.001603124591320791
95416684 -1.2332894864177742e-05 -0.001661770742091735
95446446 -0.00016456313732474357 -0.0017247960071332382
95476208 -0.00031447363959162495 -0.0017878140337541158
95505970 -0.000459431321090776 -0.00183792223258642
95535732 -0.000619538513860836 -0.0018992342619290324
95565494 -0.0007911594592802236 -0.0019234899104690804
95595256 -0.0009482593967119619 -0.001966610035782119
95625018 -0.001113494533990087 -0.001976478934589777
95654780 -0.0012855142933058058 -0.0019760470839140887
95684542 -0.0014594607654727606 -0.0020028404871655883
95714304 -0.001633418696347103 -0.002003634148810884
95744066 -0.0018177611075279633 -0.001990333736237441
95773828 -0.0019791948231065665 -0.001965878208924276
95803590 -0.0021539938350849876 -0.0019354952077955303
95833352 -0.0023004190820097724 -0.0019025953046566911
95863114 -0.002474393760963981 -0.0018413873706045617
95892876 -0.002602621129172598 -0.001792219470590061
95922638 -0.0027326379538897025 -0.0017358434165840907
95952400 -0.0028585318422131986 -0.001683755826132074
95982162 -0.002969458696619931 -0.0015950831535330402
96011924 -0.0028527621373823767 -0.0023703260219729715
96041686 -0.0032096434990484548 -0.0014217216469769507
96071448 -0.0033219951500811076 -0.0013299241148067274
96101210 -0.003406114448260601 -0.0011575510466302033
96130972 -0.0034200515426190746 -0.0021383090821032063
96160734 -0.003646614061400759 -0.0011006312754963633
96190496 -0.0037543017181949703 -0.0010427953693394173
96220258 -0.003880758512247243 -0.0009615247278437077
96250020 -0.00400185178946176 -0.0009075346945329686
96279782 -0.004025548771121384 -0.0006169450089794474
96309544 -0.00423842792296874 -0.0008775343276966176
96339306 -0.004301563933863931 -0.0006800242192726079
96369068 -0.004393766526625242 -0.0005660074497077412
96398830 -0.004506351628637665 -0.0005022817442247898
96428592 -0.0046876277577306774 -0.0005687947600431607
96458354 -0.004689978924487533 -0.0003002212870153011
96488116 -0.004473921384218714 0.0006484534529769965
96517878 -0.0048588636911102686 -6.3223760156927e-05
96547640 -0.004933733351945046 6.099550180117837e-05
96577402 -0.0049935975078557755 0.00014399668451313554
96607164 -0.005091474201061461 0.0002802633638896675
96636926 -0.0049966294060456275 0.0010427589787732386
96666688 -0.005213184961295755 0.0004937801601883068
96696450 -0.005208668587517016 0.000587207623202789
96726212 -0.005239308463628435 0.0006394173885831207
96755974 -0.0056925812339350445 -0.00027259917016354184
96785736 -0.0052143017270154055 0.0007908682462641754
96815498 -0.00596034778658625 -0.0005172079482961209
96845260 -0.00520256890788255 0.0009150035344014768
96875022 -0.005182347264764919 0.0009760118764349258
96904784 -0.00519154574250191 0.0010165783166140802
96934546 -0.0051341470593414314 0.0011404204117345703
96964308 -0.005192901563278868 0.0011302957646323994
96994070 -0.005214571970592484 0.001193377625064873
97023832 -0.00465290368205152 0.0019329234918689223
97053594 -0.005276004941970655 0.0012537253241589159
97083356 -0.005305407327302393 0.0012917452045820145
97113118 -0.005914732923350307 0.0004686018448677966
97142880 -0.005348020609799115 0.0013710752744377744
97172642 -0.0047327798846887766 0.00209548530997505
97202404 -0.005400924645330056 0.0014288705775815107
97232166 -0.005404118910541628 0.001493369447873317
97261928 -0.005421787014257598 0.0015495435120550316
97291690 -0.005408013449010205 0.0016590776327382215
97321452 -0.005416424607395289 0.0017373930667237455
97351214 -0.005449012330538571 0.0017932713778567259
97380976 -0.00544903715568474 0.0018852179403460918
97410738 -0.005425928581791679 0.0019765590477031237
97440500 -0.005427706845446675 0.002062488330930986
97470262 -0.0047389024076570935 0.002724871917168424
97500024 -0.005432231034969576 0.0022323361647479476
97529786 -0.005454041058964979 0.0022645465155804096
97559548 -0.0047437223164126345 0.0029208484604128226
97589310 -0.005458281283192991 0.002430504059365554
97619072 -0.005393963553355766 0.0025724683291141874
97648834 -0.00550138544838974 0.002563838782800193
97678596 -0.00548731053755936 0.002650462329581343
97708358 -0.004740370080503826 0.0032436695373007107
97738120 -0.005487972420959087 0.002812290024974494
97767882 -0.005504911839051278 0.002878133225871666
97797644 -0.006241146465045667 0.0023665672541810386
97827406 -0.005394812800198742 0.0030141319380734646
97857168 -0.005281672607436595 0.0031090458482365773
97886930 -0.005197824877856931 0.003197145985778746
97916692 -0.005879183321043597 0.0027751810947511373
97946454 -0.004969752767399657 0.0033898763581977293
97976216 -0.005696711111260003 0.0029538814954085733
98005978 -0.004188672942847792 0.003835891372227192
98035740 -0.004809826026932748 0.0035257604655843343
98065502 -0.004819449207428572 0.003551514907753821
98095264 -0.004888701912067695 0.0035688050326329306
98125026 -0.004920491200631276 0.0036202887743143806
98154788 -0.004292387280484603 0.003993650637153516
98184550 -0.0050800445470564086 0.003650409596710592
98214312 -0.005149751315386211 0.0036682270927886488
98244074 -0.004488094240220782 0.004040774804085799
98273836 -0.005353315999611288 0.003664017168839953
98303598 -0.005391179806055841 0.0036956899909432544
98333360 -0.005479951472000656 0.003716992640894129
98363122 -0.005501917599731639 0.003686178315119238
98392884 -0.005439952361669408 0.0036967449674801594
98422646 -0.005457838335003798 0.0036820157196908445
98452408 -0.005436883287195703 0.003680576331498656
98482170 -0.005362638565669113 0.00368655276456444
98511932 -0.005387181089502646 0.0036712006808066588
98541694 -0.004572179229426207 0.004055879870290065
98571456 -0.0052974697841681306 0.003684299518151158
98601218 -0.006030137827572625 0.0032734554617080283
98630980 -0.00524296854301572 0.0037278818849945574
98660742 -0.005199475049343374 0.0037841196237478384
98690504 -0.0044180271118892285 0.004177816366851537
98720266 -0.005853888326073362 0.0035508285761829705
98750028 -0.005060070359174804 0.003967472356154001
98779790 -0.005005755951158249 0.00403427884845282
98809552 -0.0050082052906355555 0.004061128479346519
98839314 -0.004917915249552507 0.0041394314279616165
98869076 -0.004907089497757099 0.0041794043965007405
98898838 -0.005576924693391032 0.003933798117419055
98928600 -0.004850818454339336 0.004266844214936975
98958362 -0.00560504672214027 0.003995882350354186
98988124 -0.004937373476646472 0.004293514227137523
99017886 -0.004897250901088044 0.004339965221867533
99047648 -0.004957732693781351 0.0043435680958479
99077410 -0.00491921147214412 0.004387720244864886
99107172 -0.004924797061855359 0.004409138570637969
99136934 -0.0051015044423612125 0.004398639884654662
99166696 -0.004920173721758332 0.004451584508268464
99196458 -0.0050658448024899945 0.004431324690030478
99226220 -0.004848144388476191 0.004454127867473189
99255982 -0.005108478949247335 0.004384793648933228
99285744 -0.004751112587083629 0.004390763722255241
99315506 -0.004915869575460072 0.004376024041005153
99345268 -0.005011676788743892 0.004353380995762727
99375030 -0.005042537180866397 0.00435258022334386
99404792 -0.004995022411507116 0.00433013385004422
99434554 -0.004993756275404799 0.0043143981207218445
99464316 -0.004886449102104411 0.004383707549699681
99494078 -0.004862471647422829 0.00443730757063612
99523840 -0.004722483714225004 0.004525526968735708
99553602 -0.004637006789389855 0.004591084847247037
99583364 -0.0052250419486324536 0.004442234736484872
99613126 -0.0037834669448012885 0.004923251039503037
99642888 -0.0043806613272242105 0.004779467296562187
99672650 -0.004305899563089757 0.004848134741270429
99702412 -0.004859662740688363 0.0047163153688182585
99732174 -0.004176628339962959 0.004927505387120701
99761936 -0.004040535782146875 0.0049479424001958715
99791698 -0.004322326338837971 0.004865902622399591
99821460 -0.004294473474322771 0.004866284194700903
99851222 -0.004392548187587422 0.004822691256732595
99880984 -0.00502186539146356 0.004618429273882402
99910746 -0.004419247241214544 0.004772897839744284
99940508 -0.005104671515339492 0.004557438737997475
99970270 -0.004488139801021951 0.004720123283778968
100000032 -0.004523776285390444 0.004702868202218135
100029794 -0.004502344406047194 0.004703539961955509
100059556 -0.004485773415578163 0.004724122824514423
100089318 -0.004467520786674779 0.004741323419756378
100119080 -0.004450696463442932 0.004757028783545455
100148842 -0.004436421958712418 0.004775661329227525
100178604 -0.004427197096116404 0.00479297172403276
100208366 -0.004405956324791248 0.004802555100870188
100238128 -0.004394677341486912 0.004821997772474875
100267890 -0.004363898703224702 0.004830875806609014
100297652 -0.004365383668467055 0.004847160229549018
100327414 -0.004366508986230019 0.004852010499564694
100357176 -0.004367369330709245 0.0048664618791107025
100386938 -0.004358819088506828 0.004873940136658271
100416700 -0.00435685580407952 0.004882482721562629
100446462 -0.00436228610575201 0.004883123128286036
100476224 -0.0043615143186267824 0.0049037943540038995
100505986 -0.0043658024359791445 0.004897431610491457
100535748 -0.004356597836250008 0.004918986005569225
100565510 -0.004378763891543966 0.004930736791480095
100595272 -0.00442537095323983 0.0049747382609278915
100625034 -0.004464163496369673 0.005013620415283203
100654796 -0.004524742008082723 0.005043165037278648
100684558 -0.004567209398441521 0.005096539221807773
100714320 -0.00461964892931848 0.005132069943011056
100744082 -0.004664611413818639 0.005174644910672692
100773844 -0.004729485910318917 0.005216748277956568
100803606 -0.004779862803872167 0.005253138628467033
100833368 -0.004839234889963919 0.0052961781586645515
100863130 -0.004785297091172509 0.005299852306063086
100892892 -0.0047364894705013705 0.005291950035733873
100922654 -0.004670754081736923 0.005284872203328886
100952416 -0.004615577854700854 0.0052844646610286225
100982178 -0.004569466827540708 0.005280149279943628
101011940 -0.0045095699140151515 0.005270972008155642
101041702 -0.004465334209137099 0.005270533039780348
101071464 -0.004410895639848616 0.005258681753423246
101101226 -0.0043556886376983454 0.005264001213066567
101130988 -0.004352092416228409 0.005242551782973403
101160750 -0.004351002993005585 0.005231289150824989
101190512 -0.004351723043701492 0.005247071483098167
101220274 -0.004348230521431474 0.005233726643828077
101250036 -0.0043540980921304056 0.005232949797820224
101279798 -0.004347294082615 0.00523727876037422
101309560 -0.004352372414291572 0.005226296851653048
101339322 -0.004353861910265725 0.005223259866229019
101369084 -0.00436086673336625 0.005221904275806702
101398846 -0.004331441087315547 0.005243727678456144
101428608 -0.004282501026886159 0.005304671745271742
101458370 -0.00421695416065942 0.005364169910060642
101488132 -0.004153476022146712 0.0054364614908946046
101517894 -0.0040910665852406086 0.005493988355975061
101547656 -0.0040284118008107874 0.005546977578149292
101577418 -0.003972840359031218 0.0056148570738348245
101607180 -0.0039058816137099253 0.005663843552023415
101636942 -0.0038306342841940753 0.005730700971536059
101666704 -0.0037629798139307558 0.005782858152766217
101696466 -0.0038522392080776553 0.005734241717846093
101726228 -0.0039455616043667 0.005685988041243982
101755990 -0.004032133981894577 0.005625097816960187
101785752 -0.004116473060031347 0.005574995005549034
101815514 -0.004201482375871708 0.005509100046062966
101845276 -0.004283533851037393 0.005440158508640363
101875038 -0.004371224699063178 0.005367891120803763
101904800 -0.0044494106147999 0.00530768386550081
101934562 -0.004512573233648363 0.005227631692243481
101964324 -0.004488710127194082 0.0052307969471750825
101994086 -0.004400462428108535 0.005294156910594008
102023848 -0.004322838485857857 0.005341154027725643
102053610 -0.004229916336558485 0.005388772764999829
102083372 -0.004146116317386351 0.005431353092573521
102113134 -0.004070517714022236 0.005470823832077729
102142896 -0.003965440990640541 0.005512428145021437
102172658 -0.003884752408474181 0.005551919156954474
102202420 -0.003793657106294926 0.0055855350729901105
102232182 -0.0037649153773260465 0.005620417320040006
102261944 -0.003852951127902176 0.005647795791868855
102291706 -0.003938963521371366 0.005666440194498766
102321468 -0.004018047342271329 0.005691909289472092
102351230 -0.004127697440802006 0.005716376493568949
102380992 -0.004212280586246389 0.005732588219883379
102410754 -0.004319277365215407 0.005756034977722514
102440516 -0.004410606921780271 0.005764849614337823
102470278 -0.004514860244588821 0.005783401865430638
102500040 -0.004616163091768192 0.005796773676211305
102529802 -0.0045637395422635455 0.005814116033036745
102559564 -0.004499265967148292 0.0058321037641017644
102589326 -0.004457375822626527 0.005847755546346973
102619088 -0.004394743124196446 0.005865660546492471
102648850 -0.004338138794679272 0.005889421263288698
102678612 -0.004282172300334971 0.005900578265702625
102708374 -0.004225922500766385 0.005920294170604126
102738136 -0.004177631027785978 0.005931391079064315
102767898 -0.004110240099355252 0.005945743578175413
102797660 -0.004081101401253727 0.005932994555216192
102827422 -0.004069146288630299 0.005900617144080601
102857184 -0.004063368993127213 0.005883124494637566
102886946 -0.004046744557303735 0.00585065472950651
102916708 -0.004024486222952034 0.005826172279207953
102946470 -0.004020170425447356 0.005790695284594089
102976232 -0.004000866640622591 0.005770912885380337
103005994 -0.003994165798475837 0.005741107846781354
103035756 -0.003973488754176239 0.0057129956192680745
103065518 -0.0039644376025263885 0.005700318854012885
103095280 -0.00397166962553719 0.005728893402711365
103125042 -0.00397779671331504 0.0057563428711559185
103154804 -0.003976090296906857 0.0057794730656527005
103184566 -0.00397875574470469 0.005808991931239964
103214328 -0.003986234689107459 0.0058366771202113315
103244090 -0.003986441110145664 0.005863920804484026
103273852 -0.003994922857222113 0.005890941747401913
103303614 -0.003990901048871747 0.0059190874773665785
103333376 -0.003994068851619867 0.0059501845902944495
103363138 -0.0039055150008309764 0.005943982246193792
103392900 -0.0038151639924539483 0.00593829525641763
103422662 -0.0037263782963323795 0.005933029815154547
103452424 -0.003636279170708024 0.005930526596050145
103482186 -0.003550728131091937 0.005919965265837713
103511948 -0.0034738946012656735 0.005913942890366397
103541710 -0.0033871168029797343 0.005900075212309542
103571472 -0.0033053186884865506 0.00588686322862234
103601234 -0.0032255281798790076 0.005882540504458123
103630996 -0.003228676792740826 0.005875240513466469
103660758 -0.0032811918321233686 0.0058694251745839456
103690520 -0.0033235498080741816 0.005861336296508523
103720282 -0.003363528677744769 0.0058528118810864385
103750044 -0.0034111536553722128 0.005842556430445563
103779806 -0.003465501363262535 0.00583333776086022
103809568 -0.0035125450434954704 0.0058273210957069015
103839330 -0.003547200530886274 0.00581673853888284
103869092 -0.0036085379468179116 0.005799078007467233
103898854 -0.0036461745529845963 0.005803332325061883
103928616 -0.003691394612012627 0.005816551458786306
103958378 -0.0037271920516941622 0.005842858454727171
103988140 -0.003768977292958963 0.0058620301818785745
104017902 -0.0038096212179822403 0.005892979121768881
104047664 -0.0038540089260806457 0.005912868808096144
104077426 -0.003899917348192115 0.005932568710179805
104107188 -0.003935824953717428 0.005950917094272849
104136950 -0.003980831708581221 0.005972876604084191
104166712 -0.0040237316067904755 0.005998621254930107
104196474 -0.004016821176873805 0.006034129301911041
104226236 -0.0039996828704051005 0.006078560359950646
104255998 -0.003980857324673021 0.0061275437140724896
104285760 -0.003982014452142987 0.0061712213648259994
104315522 -0.003966234600052109 0.006210091552947764
104345284 -0.003949814741847871 0.006259638095197447
104375046 -0.003935291681655687 0.006302727654029302
104404808 -0.003929904404973873 0.006353323938677359
104434570 -0.003916959821953291 0.006400339984975926
104464332 -0.0038983896098613454 0.00637059109398976
104494094 -0.0038969191400143348 0.006316786567613199
104523856 -0.0038845327243766784 0.0062556824463065016
104553618 -0.003869927619314518 0.006206492674371838
104583380 -0.0038653165431176764 0.006146822070777639
104613142 -0.0038576155350521033 0.006091278687117105
104642904 -0.003844356650118832 0.006034546963331217
104672666 -0.003832863303821748 0.005987175706267942
104702428 -0.003821938701247707 0.005925208589604848
104732190 -0.003807960962769562 0.005917378008595848
104761952 -0.0037989051172057655 0.005994194404407208
104791714 -0.0037801923971091523 0.006052938215460348
104821476 -0.0037585477172158055 0.006128456018313939
104851238 -0.003734091464497489 0.006208969100613939
104881000 -0.0037117079854873205 0.0062744450010538124
104910762 -0.0036904485126607314 0.0063560049461120005
104940524 -0.003667664825045955 0.006423604118574005
104970286 -0.0036495147751567435 0.00650035285756737
105000048 -0.0036189552447984737 0.006578323088123491
