# HZ S RI R 50
90000000 -0.00045185983786766185 0.0053386089997053635
90029762 -0.00042149794172700796 0.005372159888277663
90059524 -0.0006482547369153996 0.0053903388609289745
90089286 -0.0005082531546232336 0.005427464399052762
90119048 -0.0006846259952716276 0.0054500511613081466
90148810 -0.0005485015283116862 0.005489502126221751
90178572 -0.0005721994910324665 0.005519076262143957
90208334 -0.000544761265433758 0.005550528207859662
90238096 -0.0007785521741422154 0.0055687099007067685
90267858 -0.0006447054798515032 0.005609152153965303
90297620 -0.0006327164128824965 0.005587923201225391
90327382 -0.0005529336418383237 0.005551250824998315
90357144 -0.0005774432415306237 0.005496705998224127
90386906 -0.0004998302866953108 0.005452726382867637
90416668 -0.0006721330228136103 0.005394467732235765
90446430 -0.0004986895301229152 0.005356942095940009
90476192 -0.0004249489237457002 0.005316376120105116
90505954 -0.0003991374674743795 0.005272204499615677
90535716 -0.00042271796015204584 0.005228453320421841
90565478 -0.00034550384295693645 0.005202600735713016
90595240 -0.00034841526777309187 0.005216717301816158
90625002 -0.00031173095942726016 0.005224086168855446
90654764 -0.00022917269667729426 0.0052330005184577505
90684526 -0.0001898133753781085 0.005242258977281076
90714288 -0.00019103657540176734 0.005249698849400446
90744050 -0.00014984311458193954 0.005256747566806483
90773812 -5.981917566458358e-05 0.005262164900188636
90803574 -6.991895096151762e-05 0.005269374439722806
90833336 1.9069661980054462e-05 0.005278160274365594
90863098 4.700181700544856e-05 0.005250157087679839
90892860 2.9284018292549644e-05 0.00522580965903804
90922622 3.437219464369946e-07 0.00521562742580547
90952384 0.00012722065421918625 0.00516540697131023
90982146 0.00010649826228025728 0.005139763463093436
91011908 0.00017106618462292452 0.005116518780493183
91041670 0.00015544828433346387 0.005088098201839874
91071432 0.00018226979926004008 0.005059593909725586
91101194 8.847285078491632e-05 0.005031908600179882
91130956 0.000241888742817783 0.005046167717120554
91160718 0.00018104497911317473 0.005071206533989599
91190480 0.00016093874613931026 0.005098234784480108
91220242 2.484570738130671e-05 0.0051234953139883835
91250004 0.000122779244405564 0.005154139061924116
91279766 -1.739597434457257e-05 0.00517660392811875
91309528 0.00011475732285029926 0.005208275899132678
91339290 5.363895961236419e-05 0.005232972212994817
91369052 6.499900254185993e-05 0.005257780410377827
91398814 -0.00010156521951187987 0.0052611221797014785
91428576 2.273863479186855e-05 0.005241740309569093
91458338 6.861475240313389e-05 0.005215350095629826
91488100 3.855070683184504e-05 0.005186284442272287
91517862 4.680524997539838e-05 0.005156146164030521
91547624 9.39914580999264e-05 0.005133325855647955
91577386 0.00010831865055298505 0.005103849468904808
91607148 7.546583624545923e-05 0.005075517025446462
91636910 8.434523056689378e-05 0.005048034591372012
91666672 0.0001289218333575265 0.005023220495236378
91696434 0.0001688803797135627 0.005020624447330333
91726196 0.00028064612071764075 0.005025139428860851
91755958 0.00035892118177424973 0.0050228388743151125
91785720 0.00021063472129045015 0.005036100964321755
91815482 0.0005147897799661391 0.005019334004060392
91845244 0.0005952351382856254 0.005005124609127859
91875006 0.0006384306851738187 0.004999138427460212
91904768 0.0006152425585709327 0.004987894996678432
91934530 0.0007918354679022181 0.004974362014769081
91964292 0.0008330656707001412 0.004973982848507533
91994054 0.0008764851401010828 0.004985582511051987
92023816 0.0007538099621383749 0.005003524014395535
92053578 0.0008734137241559731 0.0050155437134464225
92083340 0.0008802839361294586 0.005026431286103892
92113102 0.0009237383073645647 0.005035981845109784
92142864 0.0009070422266044296 0.005051518605292164
92172626 0.0009520412153819868 0.0050577941151907745
92202388 0.0008346145362593273 0.005078053133997637
92232150 0.0009379217481623655 0.0050606139577456825
92261912 0.0008310400804210339 0.00500844260618783
92291674 0.000943226156213854 0.004951318721297233
92321436 0.0008993209772953472 0.004897196231396958
92351198 0.0008751956666839915 0.004839713315644721
92380960 0.0008781536187701856 0.004789179216260071
92410722 0.0008666401915194145 0.004735415812583832
92440484 0.000888269837038228 0.004680334482451317
92470246 0.0008747287591098886 0.004630094149356602
92500008 0.0008461193065853646 0.004581818654732198
92529770 0.0008599857373203045 0.00458465251967367
92559532 0.0008947115940807922 0.004593868208227925
92589294 0.0008785200894042792 0.004596584193804382
92619056 0.0009179758884184481 0.004604148603761538
92648818 0.0009352971973907465 0.004612741570960713
92678580 0.000922697645844389 0.004616059113091356
92708342 0.0007806951283509574 0.004633950165631662
92738104 0.0009733334434630713 0.0046232065701329265
92767866 0.0009624013687723933 0.0046276627059922025
92797628 0.001023309391864344 0.0046217386722979086
92827390 0.0010409102689149408 0.004601856009032227
92857152 0.0010878354307446761 0.004590276764206928
92886914 0.0010561492236775844 0.004573653043323885
92916676 0.001196075983551527 0.00455786004973116
92946438 0.0012141103037894305 0.004546316224190974
92976200 0.0012646294450433906 0.004517279115918106
93005962 0.0012442106045775845 0.004500100546592505
93035724 0.0013540987457460836 0.004480170436898491
93065486 0.0013427048781403182 0.004445970639899014
93095248 0.0015204707319577153 0.004394082300141794
93125010 0.0015714452383868128 0.004347044711095343
93154772 0.0016775880462888224 0.004301141482282743
93184534 0.001667995412896144 0.004244846719730794
93214296 0.001807707446643678 0.004181416751509401
93244058 0.0018242710106822176 0.004133499677418359
93273820 0.0019585394266540368 0.004057218817893339
93303582 0.002031494988165508 0.003988939702965628
93333344 0.002125320123679239 0.0039284581072669324
93363106 0.0021007933192779085 0.0039061474646331627
93392868 0.0020589307017102694 0.0039046778402797738
93422630 0.0020358399136169393 0.003886902625089087
93452392 0.0020371354637157167 0.003871348760016132
93482154 0.001992410857747818 0.003862259320447586
93511916 0.0019933956765542135 0.00384372443915879
93541678 0.0019680691143970286 0.003823772708341833
93571440 0.0019291199117627497 0.0038025287809470834
93601202 0.0019297132810077956 0.0037750066350987965
93630964 0.0019553131811472753 0.0037239824020432015
93660726 0.0019963779322294067 0.003667853148298441
93690488 0.0020695673147250048 0.003601223720833086
93720250 0.0021121898485396214 0.0035311133440027536
93750012 0.002168383952556449 0.0034686675894335856
93779774 0.0022431406784775665 0.0033868463111104744
93809536 0.002232386241672798 0.0033267949652032703
93839298 0.002331937314754292 0.0032336997064555243
93869060 0.002376949510401732 0.0031516175437944125
93898822 0.0024239632423543682 0.0030705540118976973
93928584 0.0024299697381013194 0.002997384844331104
93958346 0.0024647276235898624 0.0029157362650426982
93988108 0.0024213841988098574 0.00285642181307508
94017870 0.0024801137029174867 0.002759926469823641
94047632 0.0024598175439610446 0.002695548724741297
94077394 0.0025056877927449967 0.0025941702133980005
94107156 0.0025189184201624623 0.0025034972636191286
94136918 0.0025306005609404235 0.0024239885147657675
94166680 0.002524126822895897 0.0023356927863997443
94196442 0.0026436653708419495 0.0023819477012662757
94226204 0.0027298871702496528 0.0024676863048398033
94255966 0.0028951039165215128 0.0025057823901110683
94285728 0.003026075446766651 0.0025958070626323727
94315490 0.0031729841524326782 0.0026719680204184367
94345252 0.003352756969773754 0.002776296064975094
94375014 0.0035062937380315622 0.0028951201139179586
94404776 0.0037080845278539267 0.0030364844042222567
94434538 0.0039153753972627214 0.003205106712372968
94464300 0.0038318200607525437 0.0029249887591746683
94494062 0.003594623605866427 0.00246365072633218
94523824 0.003358773224521308 0.0020771428422765403
94553586 0.0031450201927856708 0.001758938780310765
94583348 0.0029672995101598394 0.0014524534782098353
94613110 0.002784533410171433 0.0011954099067131916
94642872 0.002609786535245001 0.0009768711154545494
94672634 0.002466709057028837 0.0007562808112965169
94702396 0.0022920536372973248 0.0005750134440241817
94732158 0.0021822463306091916 0.0004287209534886027
94761920 0.002112088069968224 0.00031428039270692823
94791682 0.002071476178943436 0.00020504515971509916
94821444 0.001985116098661605 6.754084941515622e-05
94851206 0.0019077954008802907 -2.608090648851683e-05
94880968 0.0018255806076126388 -0.00016079982745281695
94910730 0.0017339256405902038 -0.00028361559146904705
94940492 0.0016514740251736013 -0.000391663924631454
94970254 0.0015807834840600343 -0.0004898134938796912
95000016 0.0014619918576230621 -0.0006056576727596628
95029778 0.0013971858915231903 -0.0006992316467735523
95059540 0.001305100071087826 -0.0008075920771825497
95089302 0.0012050915301348175 -0.0009168681068240362
95119064 0.0011049629578036013 -0.0010303707416785496
95148826 0.001026963440409966 -0.00111686930961605
95178588 0.0009000849547082504 -0.001236384238824563
95208350 0.000790891928670997 -0.0013113277253116958
95238112 0.0006646763593112535 -0.001418371828073766
95267874 0.0005524755018319043 -0.0015167611332878273
95297636 0.0004163179840145411 -0.001591248487701692
95327398 0.0002697800827559861 -0.001685392754999333
95357160 0.00012794517258416898 -0.001763167202489512
95386922 -2.785075545466512e-05 -0.0018505932985297812
95416684 -0.00020157595812076774 -0.0018997795893434196
95446446 -0.0003328927863128138 -0.001955801732652817
95476208 -0.0005117820775391523 -0.0020249083138580526
95505970 -0.0006612570734859864 -0.0020745722518286623
95535732 -0.00083319319462638 -0.0021213607363251103
95565494 -0.0010209103955641544 -0.0021375742832710097
95595256 -0.001187278662037821 -0.002159217160255105
95625018 -0.0013686913237306287 -0.00218010262429874
95654780 -0.0015482578342607878 -0.002187831571792402
95684542 -0.00172574480995513 -0.002171074897921765
95714304 -0.001880968200496047 -0.0021811892980033603
95744066 -0.0020816545960128784 -0.002150065316139306
95773828 -0.002270971924311044 -0.002139553152873356
95803590 -0.0024648150475597903 -0.0020761132571673617
95833352 -0.002628647954780174 -0.002036350539582768
95863114 -0.002776972019728268 -0.0019758524751123563
95892876 -0.00290714433105458 -0.0018946954553143165
95922638 -0.00305311864477747 -0.0018543082033144814
95952400 -0.003185321136314414 -0.0017427062400166289
95982162 -0.003313146770386765 -0.001658855653811423
96011924 -0.0031924383179316915 -0.002531440262617078
96041686 -0.003535999958623551 -0.0014773847302387564
96071448 -0.0036425507822060764 -0.0014483062502157757
96101210 -0.003726897029529909 -0.001276642727175948
96130972 -0.0037396637210892836 -0.0022167205676664665
96160734 -0.00396360420317473 -0.0011247635084234
96190496 -0.004085471245034867 -0.0010642525713054328
96220258 -0.004175988481814314 -0.0009748527986260302
96250020 -0.004305452946331603 -0.0008681301686979477
96279782 -0.004414177639185051 -0.0007899859258948259
96309544 -0.004531055925807843 -0.000698910105679601
96339306 -0.004619199933338126 -0.0006205427602208579
96369068 -0.004710246015596704 -0.0005225821957366353
96398830 -0.004800803725829183 -0.00040045914770484985
96428592 -0.004887884698042224 -0.0002865635221311624
96458354 -0.0049868248088685025 -0.00019584050075661109
96488116 -0.004654444435202395 0.0008551614812025838
96517878 -0.005150974535023966 5.23279116315907e-05
96547640 -0.005216438200654624 0.00017914029885696069
96577402 -0.005304458640211116 0.00029127154784272936
96607164 -0.005344883453038859 0.0004183945205767911
96636926 -0.0048694427262448246 0.0014170918748963334
96666688 -0.005498363613949449 0.0006365733644962872
96696450 -0.005456426492354073 0.0007374414017422953
96726212 -0.005483351611872163 0.0008162702705795025
96755974 -0.006024179387436105 -0.00014667036213984367
96785736 -0.005448238058294185 0.0009517262935567228
96815498 -0.0060204205109220576 2.725437838248333e-05
96845260 -0.005422099894050042 0.0010928636453921053
96875022 -0.005403173528762599 0.0011592064280946147
96904784 -0.005392769211333503 0.0011814533863330745
96934546 -0.005324316108762254 0.001318866847322988
96964308 -0.005371442582474652 0.0013128446735655888
96994070 -0.0053928349151041565 0.0013661434986038442
97023832 -0.004781537317136207 0.0021218647227759123
97053594 -0.005446190168914727 0.0014316043162030598
97083356 -0.00548091910116369 0.0014811127458408083
97113118 -0.00615315434693823 0.000650489577963574
97142880 -0.005494420194256365 0.001553619376230713
97172642 -0.004848550136485579 0.002246766576960375
97202404 -0.005545809399270693 0.0015964470744065826
97232166 -0.00554612679212657 0.0016547807196809715
97261928 -0.005580162244751007 0.001734011705418777
97291690 -0.005551334998705128 0.0018340001771246536
97321452 -0.005542222547489166 0.0019211800763497204
97351214 -0.005565616892090522 0.0019884498874541915
97380976 -0.005565743660798766 0.002063249498109441
97410738 -0.005539736300260636 0.002174902407634987
97440500 -0.005531685848358948 0.002236202931438774
97470262 -0.004801404023865317 0.0028751479134867214
97500024 -0.005510755903871877 0.0024008191387891614
97529786 -0.005561937078625023 0.0024567556610774126
97559548 -0.004777839437465119 0.0030927562977614825
97589310 -0.005534185260265612 0.0026286606215235857
97619072 -0.005452249693755152 0.0027590637895299796
97648834 -0.005572466878526297 0.0027630223837022258
97678596 -0.005553072551363626 0.0028357559622569093
97708358 -0.004781164558352672 0.003403048703407882
97738120 -0.00554902809152942 0.0029894782069369735
97767882 -0.005557354519565238 0.0030481006486091206
97797644 -0.006317721870478595 0.0025643008602728046
97827406 -0.005443241198792987 0.0031828871822919217
97857168 -0.005324515565949825 0.003294254408221992
97886930 -0.0052388902006210054 0.0033643299875449053
97916692 -0.005937957029854987 0.002976786086382574
97946454 -0.0050638312814842235 0.003501323573209366
97976216 -0.005743543284303258 0.003129422420995319
98005978 -0.004206493157702662 0.0039681430884402555
98035740 -0.004827779583180104 0.003684148130857835
98065502 -0.004829337366525688 0.003708545635398424
98095264 -0.004900217749369449 0.003728671383546293
98125026 -0.004947300050315822 0.003762984114440331
98154788 -0.0042876307908918665 0.004127139195544856
98184550 -0.005092113456051713 0.0038093919162632637
98214312 -0.005160342674515585 0.003819634178966735
98244074 -0.004489218996462361 0.004186847160984482
98273836 -0.005363782781674101 0.0038221946153478895
98303598 -0.005409513251307633 0.0038520569291438777
98333360 -0.005480234580346052 0.0038541395382641497
98363122 -0.005505227664875517 0.0038362765917106974
98392884 -0.005434025665862247 0.0038560101570358227
98422646 -0.005449497928275927 0.0038286289902756216
98452408 -0.005440636441701782 0.003820683615981235
98482170 -0.005365217047301024 0.0038296103093657776
98511932 -0.0053837810944962206 0.003806067141794848
98541694 -0.004551944164737224 0.004169348626923261
98571456 -0.005289699011284222 0.0038166352053479666
98601218 -0.0060232068439761595 0.003422809999259361
98630980 -0.005229819205195018 0.0038520007086078134
98660742 -0.005179982647539378 0.003929976538802234
98690504 -0.0043843381531689825 0.004288817500317039
98720266 -0.0058352271582594786 0.003690612852810035
98750028 -0.005032313262310927 0.004095583323488192
98779790 -0.004978946880200345 0.00414851238131968
98809552 -0.004984537779149068 0.004172019575703193
98839314 -0.00488232910700651 0.004261451950824502
98869076 -0.004885212426131619 0.0042951328160708395
98898838 -0.005561734214347194 0.004072574541180924
98928600 -0.004824368086002693 0.0043752493336434726
98958362 -0.005567815265795563 0.004115101563771982
98988124 -0.004881467755947797 0.004413779166718597
99017886 -0.004864882112427948 0.004463886656111557
99047648 -0.004911851784774009 0.004456981072810201
99077410 -0.0048763693520598285 0.004495210587257879
99107172 -0.004886160961418497 0.0045259093887925275
99136934 -0.004957610502467224 0.004526170890054125
99166696 -0.004774367940090966 0.004577938441408293
99196458 -0.0049124767834662015 0.004558483081853517
99226220 -0.004910717574203358 0.004543514386843814
99255982 -0.00496312990000227 0.00450410487828169
99285744 -0.00490832970056728 0.0045042982045190175
99315506 -0.004954509122281594 0.004471190933446121
99345268 -0.0046712841591504085 0.00444313892751283
99375030 -0.004997239203544479 0.004446993349979203
99404792 -0.004959535693389914 0.0044389915336468955
99434554 -0.0049456093832823235 0.004415576106310356
99464316 -0.005130325367875497 0.004502364104555186
99494078 -0.004811675048016142 0.004525299855668535
99523840 -0.004676689426948722 0.004620164240596778
99553602 -0.004402550500296263 0.004687708196501858
99583364 -0.005163529463366145 0.0045325752324244595
99613126 -0.003734468796754879 0.00499529401064429
99642888 -0.004337908793788342 0.004865558439333302
99672650 -0.0042592810693776765 0.004925071662842664
99702412 -0.00480387081407122 0.0048086379335807675
99732174 -0.004117008132672814 0.004997890667564047
99761936 -0.003990302845963108 0.005018185639759703
99791698 -0.004262453364083134 0.004936212331520466
99821460 -0.004246236197339156 0.004925691643931221
99851222 -0.004338539482809976 0.004884454692328179
99880984 -0.004765410077236324 0.00469227845455225
99910746 -0.004354915554823437 0.00484671676054708
99940508 -0.0050359409235072455 0.0046325505301804135
99970270 -0.004436269132115466 0.0047833648427772525
100000032 -0.00447890868647222 0.004765756683001839
100029794 -0.0044477309252893196 0.004767311676477069
100059556 -0.00443383091925925 0.004799969398479055
100089318 -0.0044208499611828956 0.004796157394999733
100119080 -0.004392023282461587 0.0048188218447571185
100148842 -0.004379756647074534 0.004836930402846123
100178604 -0.004361052722802418 0.004857812445643629
100208366 -0.004350874228051955 0.004863744669143483
100238128 -0.004324692623734332 0.004874545378809283
100267890 -0.004306922088761093 0.004894488861640471
100297652 -0.0043112222593682725 0.004891845387025154
100327414 -0.004300198316512192 0.004914573539894482
100357176 -0.004311427461090996 0.004910038489278988
100386938 -0.004303709505187508 0.004919540855958935
100416700 -0.004305560200867422 0.004933224140833887
100446462 -0.004310548315057351 0.004925561518902892
100476224 -0.004304917987759347 0.0049369108884071535
100505986 -0.004315593876459325 0.004947876897628041
100535748 -0.004307886398265273 0.0049543045724326435
100565510 -0.004328468065283863 0.004964251654983181
100595272 -0.004368307903617425 0.005012624621183707
100625034 -0.004419512747738456 0.0050522043599756945
100654796 -0.004470582630913352 0.0050905906823818
100684558 -0.004517401502798571 0.005128183854349848
100714320 -0.004554595242702625 0.005172942696110634
100744082 -0.004610814635777701 0.005218415309321993
100773844 -0.004665974939834458 0.005260430652510103
100803606 -0.0047248759110440595 0.005294703504410346
100833368 -0.004782897367825379 0.005341985733863997
100863130 -0.004726491503303282 0.005325010807734625
100892892 -0.004671837921292611 0.005326477974633509
100922654 -0.004613892364920369 0.005313518709295567
100952416 -0.004554378167266297 0.005320854834309429
100982178 -0.00449894349074087 0.005310262404413416
101011940 -0.004450664030766286 0.005298617348765432
101041702 -0.004407596510337038 0.005288089222548248
101071464 -0.004344289061433055 0.00528431311038881
101101226 -0.004296200942681027 0.0052839564736090645
101130988 -0.004288135088283938 0.005275608378889431
101160750 -0.004282911046835847 0.005269487038454695
101190512 -0.004281761322237145 0.005274372287382985
101220274 -0.0042971820748518965 0.0052646333102794535
101250036 -0.004295154666194144 0.00525743775550235
101279798 -0.004293982811860828 0.005263000015836875
101309560 -0.004306896045307418 0.00526217705377474
101339322 -0.004315910187898358 0.005256711221576859
101369084 -0.004311100128941842 0.005248440825008753
101398846 -0.00428696014952776 0.0052660183868116425
101428608 -0.004236387031198325 0.005328539055577138
101458370 -0.0041787929206409955 0.00539668145525292
101488132 -0.004128172780565343 0.0054603655339730195
101517894 -0.004049076929892998 0.005509221074496474
101547656 -0.00398475216783138 0.005574471770065666
101577418 -0.003928181993433812 0.005639634659289
101607180 -0.0038570890030561436 0.0056929802587096885
101636942 -0.0037921184873404763 0.005745997078073834
101666704 -0.0037235052976231976 0.005796510444728984
101696466 -0.0038099822886157675 0.0057541198529580725
101726228 -0.0039106130294249315 0.005713114242746846
101755990 -0.004007769719964008 0.005646417351465326
101785752 -0.004082746597216797 0.005589905515878472
101815514 -0.004178248295502076 0.005526400781990343
101845276 -0.004259564474877632 0.005472671510047458
101875038 -0.004336251190652419 0.005400066265805582
101904800 -0.004418334331721132 0.005331509583186335
101934562 -0.0044897499247204785 0.005258200988072516
101964324 -0.004456826858082087 0.0052652173714186285
101994086 -0.004376650225369717 0.005310522814506494
102023848 -0.004296521460503908 0.005341343302490315
102053610 -0.004205929231854543 0.00538698409633973
102083372 -0.004125687955341098 0.005437548089881503
102113134 -0.004036704508492091 0.005479557532499826
102142896 -0.003960637302625554 0.00552213380812611
102172658 -0.003783425427777759 0.005554007666362111
102202420 -0.0037849016326136514 0.005593085749362111
102232182 -0.003747674327559195 0.005626039011572097
102261944 -0.003827174880555029 0.005653249590911913
102291706 -0.003924733591585975 0.005681289993511392
102321468 -0.003915112902455742 0.005696893021122507
102351230 -0.004096442090107475 0.005713701092507444
102380992 -0.00419497745493183 0.005734280269450487
102410754 -0.004293869371051814 0.005757394889125312
102440516 -0.004401113363138893 0.005766078948952928
102470278 -0.004487959412892283 0.005778116770446677
102500040 -0.004597819163975955 0.00578986794552673
102529802 -0.004544435201264126 0.00581438479935169
102559564 -0.004487376828622681 0.00583027578575585
102589326 -0.004429749308069485 0.005850110304343124
102619088 -0.0043752362295349815 0.005862862334341184
102648850 -0.0043202277065124755 0.005883338236944523
102678612 -0.004265243068051729 0.005899086075762582
102708374 -0.004208710782491562 0.00591191412291294
102738136 -0.004154470252560914 0.005925290257596572
102767898 -0.004096793953929832 0.00594210016518206
102797660 -0.004061417770529621 0.005925250916565654
102827422 -0.004060847860557008 0.005901705951826453
102857184 -0.0040338051256966455 0.005861369331600079
102886946 -0.004025019315188557 0.0058392352857723675
102916708 -0.004009665920704497 0.005811859488736647
102946470 -0.003991169101092265 0.005786102388964873
102976232 -0.003987692609702494 0.005765545056500318
103005994 -0.003977530978114598 0.0057271495776545535
103035756 -0.003962822108902102 0.005699588026016417
103065518 -0.003952240495023591 0.00569142373797652
103095280 -0.003950261940029231 0.0057172816337482
103125042 -0.0039524598258189785 0.005746955043713433
103154804 -0.003959525416410984 0.0057765885376817325
103184566 -0.003960971863113601 0.005797840703680881
103214328 -0.003970917158889119 0.005828096229119532
103244090 -0.003970192017755929 0.005855891736406633
103273852 -0.003975436044365509 0.005879581007239565
103303614 -0.0039698760788590744 0.005907863248761819
103333376 -0.003970379126126462 0.005936472634573529
103363138 -0.0038925773867332617 0.005927151692309801
103392900 -0.0038036665641542323 0.0059299538230468025
103422662 -0.0037115419266801775 0.005931409865948323
103452424 -0.003629811002842466 0.005921771467705122
103482186 -0.0035448479965719823 0.005914866508115155
103511948 -0.0034626794226887674 0.005904504382206117
103541710 -0.0033752243465507326 0.005895982519808769
103571472 -0.0033062006335757973 0.005879047764256542
103601234 -0.0032184890970182616 0.005866756376767048
103630996 -0.0032308598649641246 0.005867779943690234
103660758 -0.003263245839834816 0.005852706199383598
103690520 -0.003308559394826001 0.0058557432449479856
103720282 -0.003364128429703972 0.005842881107322824
103750044 -0.003409357575662039 0.005834376339806041
103779806 -0.0034539956823404928 0.005822284239294285
103809568 -0.0035054104749828014 0.005813420854727964
103839330 -0.003552378482973053 0.005810373163812164
103869092 -0.003601422328937483 0.00579971221253182
103898854 -0.0036415997715194665 0.005783105048384951
103928616 -0.0036832444675881674 0.005811221345450288
103958378 -0.0037244564542426115 0.005836704309430384
103988140 -0.0037541335107642688 0.0058633321015003305
104017902 -0.0038042156373833983 0.005880203473815133
104047664 -0.0038446842518410304 0.005893628736425866
104077426 -0.0038923709990261583 0.005914214740501302
104107188 -0.003928438679304697 0.005938352031438692
104136950 -0.0039828061998258306 0.0059589065703535065
104166712 -0.0040227921203145915 0.005981775492744768
104196474 -0.004016765458381721 0.006025656070835911
104226236 -0.003992588047857632 0.006060970896134437
104255998 -0.0039792772983815354 0.006116195112778224
104285760 -0.003979218875640542 0.006155295825112046
104315522 -0.003963674544088461 0.006194789114980845
104345284 -0.003946881178646778 0.006242866241584166
104375046 -0.003933988032400717 0.0062910095481852795
104404808 -0.003917641211544344 0.006336402251059964
104434570 -0.003909422911556397 0.006377987060810021
104464332 -0.0038901910715332913 0.006356444029624627
104494094 -0.003895565873721588 0.006302787070314212
104523856 -0.003880087181311866 0.006237915910204946
104553618 -0.003873945239638134 0.006184549960506799
104583380 -0.0038726623111585935 0.006133269124524295
104613142 -0.003853808519187414 0.006078645346632352
104642904 -0.0038495166423662803 0.006022581853408321
104672666 -0.0038444923236182894 0.005969696127291256
104702428 -0.003825693957786972 0.005921833939635569
104732190 -0.003812352277062544 0.005904913375305245
104761952 -0.0037916095102741828 0.005976046329628679
104791714 -0.003773980800283846 0.006046409873344664
104821476 -0.0037661694925017627 0.006117826101111749
104851238 -0.003740917796096277 0.00618958026192944
104881000 -0.003718225881197597 0.006258393172832754
104910762 -0.003701908712332535 0.006335621410442925
104940524 -0.0036795418398047745 0.006407258112891414
104970286 -0.003647168570323853 0.006489704470523325
105000048 -0.0036275814448573592 0.006563621383676407
