# HZ S RI R 50
90000000 -0.00043655941471307713 0.005329840308254773
90029762 -0.00040128848900830615 0.005364969440141099
90059524 -0.0006251089214090919 0.005382357994707909
90089286 -0.0004921060541201196 0.005417626181452045
90119048 -0.0006700835864799835 0.005438533512232156
90148810 -0.0005321487658213449 0.00547999508752814
90178572 -0.000553206497575015 0.005512171551651921
90208334 -0.0005271187695752317 0.005545206133841846
90238096 -0.0007594326342309782 0.005557564235823759
90267858 -0.0006275202646581084 0.00560159590955698
90297620 -0.0006135289608107927 0.005584355331413355
90327382 -0.000532638054317505 0.00553685644188851
90357144 -0.0005590143148678338 0.005486230359217571
90386906 -0.0004816210886176402 0.005443212373168553
90416668 -0.0006514895014640045 0.005384864417547953
90446430 -0.00047619809700076327 0.005350513510720943
90476192 -0.00040380843507748415 0.005308673915802827
90505954 -0.0003783901280260527 0.005263745821287243
90535716 -0.00040379623725717603 0.005218289645294172
90565478 -0.0003250503363511444 0.005195082049821324
90595240 -0.0003332577789148435 0.005200938417415466
90625002 -0.00029149058276536276 0.00521318753670337
90654764 -0.00020329742064214055 0.005220070752808204
90684526 -0.00016442883409536807 0.005227825939486948
90714288 -0.00017046350022679484 0.0052399730211061075
90744050 -0.00012692992833250488 0.005244225704853359
90773812 -4.034717341207867e-05 0.005248091354869134
90803574 -4.671422284099116e-05 0.005255989845043526
90833336 4.4313297374514527e-05 0.0052632961633039925
90863098 6.843490534298606e-05 0.005237995014459012
90892860 5.2495882765949794e-05 0.005208706241259148
90922622 0.00011495715190940102 0.005181381486631751
90952384 0.0001454828471975719 0.0051521128698078355
90982146 0.00012440920247795958 0.005131731227072103
91011908 0.00019448041284767659 0.00509487260714623
91041670 0.00017745252733268116 0.00507367054181981
91071432 0.00019953847733870754 0.005045833380628972
91101194 0.00010930357052229352 0.005017175167440449
91130956 0.00026183158086720814 0.005028039937219883
91160718 0.0002059072766530146 0.0050502885167297085
91190480 0.0001865667754719442 0.005082226920661184
91220242 4.6235100920775026e-05 0.005105191956360305
91250004 0.00014587180136038078 0.0051352525660449105
91279766 3.767265623926437e-06 0.005158355820432421
91309528 0.00013779696611308217 0.0051919990028463075
91339290 8.08332178113887e-05 0.005214273738111287
91369052 9.436846822807606e-05 0.005239748033964726
91398814 -7.529138208426129e-05 0.005245142911956055
91428576 4.7706558400052916e-05 0.005221063179709439
91458338 9.511390264787643e-05 0.005197617854902338
91488100 6.7810903668361e-05 0.005170419451478626
91517862 6.926507649372139e-05 0.005140174372591214
91547624 0.00012375173005211472 0.005112348659197131
91577386 0.00013298264208077838 0.005085399955052423
91607148 0.00010219323441894747 0.005052691951430243
91636910 0.00011257059199438586 0.005028133353650434
91666672 0.00015941798964962396 0.005005883662349409
91696434 0.00019572881480392403 0.004999109508682555
91726196 0.0003111293317647787 0.005004092428709754
91755958 0.0003881302698279916 0.005000214169654192
91785720 0.0004328503661070984 0.004996358669323202
91815482 0.0005482224105173254 0.0049888653355284265
91845244 0.0006256608362281279 0.004978842659544808
91875006 0.0006637477700950599 0.004968391323720653
91904768 0.0006487352963569603 0.004961789888883229
91934530 0.0008274285366348275 0.004940546659425258
91964292 0.0008632854619407977 0.00494704099946933
91994054 0.0009089459350309787 0.004956770369605333
92023816 0.0007895024744068292 0.004969851721867446
92053578 0.0009012244134912003 0.004978170042972554
92083340 0.0009182295565905664 0.00499236606727972
92113102 0.0009606751602261642 0.005003081619334155
92142864 0.0009449735191592537 0.005015508244767859
92172626 0.0009856489974741276 0.005022578300121806
92202388 0.0008752841495651315 0.005034550167880624
92232150 0.000974772589652391 0.005021212262492133
92261912 0.000871947042374166 0.004968438073991861
92291674 0.0009767966205169992 0.004912132243865593
92321436 0.0009328743258916507 0.0048585478701037
92351198 0.0009527587476050565 0.004800161262858885
92380960 0.0009140212400769287 0.0047503775838292255
92410722 0.0009049295300144284 0.00469749715870694
92440484 0.000924054152079671 0.004643097478100831
92470246 0.0009152772904745391 0.004590323871953103
92500008 0.0008816705015413215 0.00453680723702291
92529770 0.0008955427276882001 0.004543253174959039
92559532 0.0009360020323594193 0.004548903935657467
92589294 0.0009183271131779876 0.004550973948256021
92619056 0.0009584189159442556 0.004558240065652045
92648818 0.0009760789851937134 0.004566788974336154
92678580 0.0009587553724205123 0.00456870578853283
92708342 0.0009993978421966995 0.004573127646466048
92738104 0.0010147066935332232 0.004575783659355666
92767866 0.001005798814194035 0.004580987682708073
92797628 0.0010637518557703664 0.004573554162348871
92827390 0.0010782089632649838 0.004554442688619913
92857152 0.0011206671273496392 0.004543684592139762
92886914 0.0010943358154605878 0.004520243501398221
92916676 0.0012338153442225924 0.004504489480924485
92946438 0.0012555201708978104 0.004483154434697378
92976200 0.0013002311669432682 0.004458189072328497
93005962 0.001281506613196487 0.004431694106081901
93035724 0.0013953119428978796 0.004402385630334109
93065486 0.0013854103661920442 0.004378817328666464
93095248 0.0015566406765581957 0.004319732017870558
93125010 0.0016148699518442379 0.004270464508429022
93154772 0.0017141338628679913 0.0042197354795747285
93184534 0.0017033532142020572 0.0041641589754922124
93214296 0.0018511646360527445 0.004094944686428499
93244058 0.0018500841164840764 0.004045948233763476
93273820 0.001991448032840982 0.0039675496913480395
93303582 0.002056110582654088 0.0038980279142062572
93333344 0.002153011975900003 0.0038229075933115765
93363106 0.0021264721225092826 0.0038122711577986447
93392868 0.0020882347305870848 0.003807266249517939
93422630 0.0020672416220968554 0.003790130260918092
93452392 0.002063697575533682 0.0037694726746979354
93482154 0.0020186535365789306 0.0037520770278310707
93511916 0.0020175295143962718 0.003731991244298299
93541678 0.0019993708490061816 0.0037029853066597425
93571440 0.0019582074918545194 0.003684470851986615
93601202 0.0019560263865552206 0.0036531599091489176
93630964 0.00198931028312951 0.003604221748275203
93660726 0.0020231182792556416 0.003537563487196269
93690488 0.0020978089724721354 0.0034661874423255754
93720250 0.002134341515531252 0.0033989284740096495
93750012 0.0021898530103804216 0.0033280269785424866
93779774 0.002256986866054492 0.0032417064184587546
93809536 0.0022445474019607823 0.003184156532016721
93839298 0.002333389527520137 0.0030876270560502113
93869060 0.0023839616287447104 0.0030010755678390485
93898822 0.0024268603279928185 0.00292496362649818
93928584 0.002434140492295711 0.0028418452077249305
93958346 0.002415011656859757 0.002778566244078057
93988108 0.0024630438528686054 0.002669826176066921
94017870 0.0024256558288234926 0.0026183446010190786
94047632 0.0024796862538665 0.0025039857944940003
94077394 0.0024553324611623437 0.002451280587208296
94107156 0.0025259360921351137 0.002299014657850969
94136918 0.0024718279150378656 0.002261939637176556
94166680 0.002530700443641641 0.002119334559993183
94196442 0.002564281589098436 0.002216954070397616
94226204 0.0026865253375966433 0.002243762044915693
94255966 0.0028384959805633878 0.0022743167099031274
94285728 0.002969155306689725 0.002343464159893382
94315490 0.003091677475914934 0.0024190691113732277
94345252 0.0032694269277644557 0.002467150407252858
94375014 0.003419884896883487 0.002565831035509876
94404776 0.0036016167906323315 0.0026935333249275225
94434538 0.003810686542155729 0.0028187757029695614
94464300 0.0036778178657691537 0.0025698335218083414
94494062 0.0034334388469364763 0.002126221305534351
94523824 0.003218486141858939 0.00175539731459696
94553586 0.0030143365067071158 0.0014391710322878583
94583348 0.0028010969942892116 0.0011708384299472787
94613110 0.0026124468521595565 0.0009245728831307405
94642872 0.002446713121490203 0.000724848859047195
94672634 0.0022681701261503323 0.0005308390052267658
94702396 0.0021219490783417816 0.0003598205587264312
94732158 0.0020000466352428073 0.00022560695880638148
94761920 0.0019117744707422967 0.00010676777233873754
94791682 0.0018446858033794617 -8.110150784264323e-06
94821444 0.0017674509035910245 -0.00012876286445987842
94851206 0.0016905249811980656 -0.00022284822365159019
94880968 0.001595122846500119 -0.0003562508872637664
94910730 0.0015166707589236023 -0.0004452661558844599
94940492 0.0013964961611695865 -0.0005466656424761152
94970254 0.0013061801314055797 -0.0006349096262342966
95000016 0.0011946607593478755 -0.0007532112374594484
95029778 0.0011134452561642426 -0.0008284126468615903
95059540 0.0010081374211930575 -0.0009298374421164375
95089302 0.0008981770849362827 -0.0010261230332354416
95119064 0.0008031172732908758 -0.0011090917824854592
95148826 0.0007095952588734778 -0.0012117601533026534
95178588 0.0005685698555976112 -0.0012925380229589223
95208350 0.0004484824033366271 -0.0013908406406528387
95238112 0.0003314508684681087 -0.0014848255862623375
95267874 0.00022239355175489238 -0.0015587076776406217
95297636 6.306915370822969e-05 -0.0016409108456720961
95327398 -8.335657706583763e-05 -0.001705444948675236
95357160 -0.00022354991608575033 -0.0017610076306068215
95386922 -0.0003879840238743913 -0.0018187636907558255
95416684 -0.0005458040828850644 -0.0018681053855463348
95446446 -0.0007084685660468001 -0.001936064422137585
95476208 -0.0008602825509109699 -0.001953757960970077
95505970 -0.0010253811422193649 -0.0020088892020573845
95535732 -0.0011761085299997877 -0.0020371528203668144
95565494 -0.001369291288214822 -0.0020367751133770736
95595256 -0.0015457865105504395 -0.0020483932007565034
95625018 -0.00172088593059233 -0.0020290869446461393
95654780 -0.0018820291031879364 -0.0020370590686642123
95684542 -0.002056558955291183 -0.0020289200566515624
95714304 -0.0022197229120195414 -0.0020031989784771243
95744066 -0.0024090740609990034 -0.001960272203224894
95773828 -0.00257322463481239 -0.0019148578014142933
95803590 -0.002750068742765151 -0.0018471229365418223
95833352 -0.00290660116761173 -0.0018118325778480689
95863114 -0.003032689835676251 -0.00174149612873191
95892876 -0.0031787868462322014 -0.0016500451826775258
95922638 -0.003285760568719883 -0.0015492557460970973
95952400 -0.003390239964442761 -0.0014760567321705487
95982162 -0.003499110472144245 -0.001397503093570373
96011924 -0.0034302266699126893 -0.002313800200116755
96041686 -0.003693298383742548 -0.001251921877571141
96071448 -0.0037840047526595867 -0.001170632966807315
96101210 -0.0038917799326247254 -0.0010942221052785603
96130972 -0.003955799472533149 -0.0019396027732727964
96160734 -0.004087910407494808 -0.0009136690662511306
96190496 -0.004209961167463362 -0.00086876888713596
96220258 -0.004319946804701478 -0.0007676640597122619
96250020 -0.004408714060475836 -0.0006573927962792682
96279782 -0.0045195671892364255 -0.0005814129382003909
96309544 -0.004606274020063511 -0.000548916034163425
96339306 -0.004683704268718789 -0.00040365201528002546
96369068 -0.004768211603708484 -0.00029414661571845106
96398830 -0.004832627164631365 -0.00021668881401582502
96428592 -0.004929589163545837 -0.0001066799010014553
96458354 -0.005015467509428299 1.3170189695452764e-07
96488116 -0.004634509664737767 0.0010167013897487277
96517878 -0.0051687274899998 0.0002592604484989219
96547640 -0.0052283134079108996 0.00035923027105637086
96577402 -0.005300058093522753 0.0004763000442303105
96607164 -0.005345471726990194 0.0005903951192462003
96636926 -0.0051058325652885775 0.0014318000395610105
96666688 -0.005473974202505794 0.0008091773789219302
96696450 -0.005457427498796088 0.0008839683566282342
96726212 -0.005453562646431571 0.0009613945662614333
96755974 -0.006018958945096682 5.7927673496075603e-05
96785736 -0.005423945923726344 0.0011133765840513296
96815498 -0.006024942765781713 0.0002009343632023547
96845260 -0.005373347691861848 0.001211263448166594
96875022 -0.005363235621529495 0.001272469846302395
96904784 -0.005360278407297646 0.0013248276922290005
96934546 -0.005290158274016742 0.001424377481966448
96964308 -0.005338794875350982 0.001423471671163653
96994070 -0.005355760118030418 0.0014650994757630905
97023832 -0.004733083412143601 0.0021928969754503114
97053594 -0.005414404600351506 0.0015517603838931086
97083356 -0.005450183055549815 0.0015575084703922538
97113118 -0.006122996980728799 0.0007857208598153685
97142880 -0.005458870751022294 0.0016501403849798178
97172642 -0.004804610800231348 0.002314668012416481
97202404 -0.005508858126781712 0.0016874574955061106
97232166 -0.005509315559819452 0.0017500968627185702
97261928 -0.005520451747797719 0.0018232076933076549
97291690 -0.005504725967635662 0.0019109135969518853
97321452 -0.005497983857072039 0.001987736850936959
97351214 -0.005531584206289152 0.0020584736136417332
97380976 -0.005520818180800741 0.002144394952530661
97410738 -0.005496585255238351 0.002219122789406506
97440500 -0.005501327214919519 0.0023134994237875937
97470262 -0.00476521056748317 0.002934956891545589
97500024 -0.005484164257657275 0.002471199670748795
97529786 -0.0055135903383199784 0.0025160372723052023
97559548 -0.004753395648966076 0.003129352699000572
97589310 -0.00549317925383501 0.0026790181366975006
97619072 -0.005429029810658902 0.002799534182111084
97648834 -0.005537717648670359 0.002796828410572894
97678596 -0.005511862770070815 0.0028958887955064876
97708358 -0.004748476232846405 0.00343250793991908
97738120 -0.005516871660762273 0.0030222195844276946
97767882 -0.005504217966443831 0.0031092490058526492
97797644 -0.006282795792189397 0.002636359290706105
97827406 -0.005418183260257703 0.0032307796574320043
97857168 -0.005287148503396047 0.003329377982806164
97886930 -0.005227352368082534 0.003392612473206202
97916692 -0.005900058150571793 0.0030031125830928926
97946454 -0.0050567972899285 0.0035248279696436665
97976216 -0.00571440438904505 0.0031713564256089506
98005978 -0.0041787785275272365 0.003994089729451982
98035740 -0.0048052695062113186 0.0037069641185298817
98065502 -0.004812311067410823 0.0037353132141754956
98095264 -0.0048917386394121 0.0037497930099146125
98125026 -0.004923108553876204 0.0037842590840515803
98154788 -0.004274975069004884 0.004150707107213791
98184550 -0.0050732906550690245 0.0038278174950877827
98214312 -0.0051510924447868995 0.0038342082928607053
98244074 -0.004474588543185381 0.004196252123917838
98273836 -0.005343953331422858 0.003848306387815278
98303598 -0.005379965982920358 0.0038724105721635034
98333360 -0.0054720180885806284 0.0038806037109311528
98363122 -0.005486259767475338 0.00385920731891585
98392884 -0.005425401826467801 0.003878159225774218
98422646 -0.005445291986825577 0.003854156039667233
98452408 -0.0054160064684562765 0.0038393479210073783
98482170 -0.005343791396721773 0.003847485232057763
98511932 -0.005371538602601369 0.0038281738513485262
98541694 -0.004540520853201975 0.0041855479153915815
98571456 -0.005277235058585576 0.00383119864685779
98601218 -0.006029864739214164 0.0034406888375079912
98630980 -0.005215616010885602 0.003866723912463969
98660742 -0.005168010982861771 0.003925868074896872
98690504 -0.004370892471177706 0.0042889064192190235
98720266 -0.005828222989538931 0.0037008531747523593
98750028 -0.005026102271015102 0.004100359586398878
98779790 -0.004978748788568213 0.004165267680174783
98809552 -0.00498226256947579 0.004197301617933671
98839314 -0.004876134946596137 0.0042704127256436904
98869076 -0.0048854483059574015 0.00431166973505769
98898838 -0.005543957320855152 0.004093649961650517
98928600 -0.004805056085757298 0.004389954882572514
98958362 -0.0055602166829984215 0.004154238926110015
98988124 -0.004887672754979642 0.004423300790666448
99017886 -0.004859266355096588 0.0044856069448476485
99047648 -0.0049191533291615235 0.004485691779528155
99077410 -0.004876662944611751 0.004527539841977773
99107172 -0.004896030898086295 0.0045530676656711806
99136934 -0.004958393377073787 0.004563678353833139
99166696 -0.004977915493722089 0.004578663342118436
99196458 -0.004915300904099179 0.0045882388881198916
99226220 -0.004915555563559795 0.004562581854474443
99255982 -0.004975022870935953 0.00452706030029888
99285744 -0.004907596524528527 0.004540588219046271
99315506 -0.004964560228568319 0.004499041421922907
99345268 -0.005066208369139336 0.0044673689307890944
99375030 -0.004808610347110929 0.004503657567397651
99404792 -0.004961642785561657 0.004454985399552362
99434554 -0.00495413445011032 0.004440357975222653
99464316 -0.004842431235381753 0.004503571749406538
99494078 -0.004822338293597974 0.004558306864069319
99523840 -0.004677433975542701 0.004635203681010708
99553602 -0.004587801127301076 0.004704283868682468
99583364 -0.005170148470008434 0.004564778831417945
99613126 -0.003739615998551249 0.00501371390555399
99642888 -0.004349648014098814 0.004879790792429802
99672650 -0.004258469548607463 0.0049469916316281235
99702412 -0.00480433667304104 0.004834757571719335
99732174 -0.00412354513004481 0.0050295883798667515
99761936 -0.0040007328304490376 0.0050413040465434366
99791698 -0.004268083440780338 0.0049732293938505616
99821460 -0.00424831278387578 0.004952086990781047
99851222 -0.004348483599037209 0.004910712796283652
99880984 -0.004972666680102585 0.004723004377037775
99910746 -0.004365249971835934 0.004874511382565245
99940508 -0.005045417972631793 0.004666211823100314
99970270 -0.004430782672413605 0.004815839504116984
100000032 -0.004479842591060685 0.004801573875651552
100029794 -0.004457975177855336 0.004799445707739967
100059556 -0.004426695072536539 0.004820755437881236
100089318 -0.004411800726795593 0.004834947972589535
100119080 -0.00440570393382145 0.004843887339424446
100148842 -0.0043887126531166835 0.0048591930287544645
100178604 -0.0043731404856880585 0.0048738196506224836
100208366 -0.00435260541874574 0.00488088774531652
100238128 -0.0043358126618318156 0.0048981873324116226
100267890 -0.004314397384822657 0.004911624076950735
100297652 -0.004305954279960119 0.004934177943753178
100327414 -0.004311526742575002 0.004940186409412781
100357176 -0.00431378128147556 0.004945201622397002
100386938 -0.0043101008069310045 0.004943905739578264
100416700 -0.004315086480936391 0.0049527842948538245
100446462 -0.004315991389816318 0.004961408389523847
100476224 -0.004316092181565655 0.004970571175084981
100505986 -0.004296123057138063 0.00498375619826273
100535748 -0.0043101855570736244 0.004982033978241559
100565510 -0.004320674801041635 0.0050118224178116655
100595272 -0.004371416566874077 0.005043952719943573
100625034 -0.004419905355901336 0.005080057964738669
100654796 -0.004466093735321218 0.005128838642596259
100684558 -0.00450751516432053 0.0051675357838190565
100714320 -0.004561016005385397 0.005212770155618996
100744082 -0.004606653994137522 0.0052472035997295835
100773844 -0.004653845699340006 0.00528736368607114
100803606 -0.004730340444702378 0.0053291188080370104
100833368 -0.0047904112093336585 0.005370775512444138
100863130 -0.004726642150472745 0.005360673468006077
100892892 -0.004676930068864403 0.005363424371964456
100922654 -0.004613943257830579 0.005359924167722789
100952416 -0.004554222080998555 0.0053473824438527206
100982178 -0.004503028496686837 0.005332462120250217
101011940 -0.004457284421958011 0.005331677626253728
101041702 -0.004407291405974986 0.005330536961321831
101071464 -0.004353111573816961 0.005324270617268664
101101226 -0.00429681412763007 0.005310913734715136
101130988 -0.004283254729611129 0.005302822030125674
101160750 -0.004288621158719953 0.005306254794084261
101190512 -0.004292734186985287 0.005295801476225484
101220274 -0.004292527595692897 0.005295353691276651
101250036 -0.004287493651789377 0.005290819906505188
101279798 -0.004295416876168076 0.005289315601894663
101309560 -0.004298780269657884 0.005282158523524213
101339322 -0.004300583927102855 0.005277524262037233
101369084 -0.00429792398150423 0.005272103724143123
101398846 -0.004288054232775677 0.005299128353019246
101428608 -0.004235299063260029 0.005353863524495709
101458370 -0.004166512906610888 0.0054173613163497735
101488132 -0.004096932240770219 0.005482878082451136
101517894 -0.004046528327473341 0.0055412548487929585
101547656 -0.004063162130701936 0.005608620170333266
101577418 -0.003989169598157683 0.0056652744860438125
101607180 -0.003934000532084135 0.005728241766249157
101636942 -0.003865953947897915 0.005775734208653015
101666704 -0.003792813359011699 0.0058272774175491555
101696466 -0.0038918670366704165 0.005788510845134927
101726228 -0.003975986215466947 0.0057291233927475
101755990 -0.004068174310291689 0.005676509928406971
101785752 -0.0040578880890549665 0.00561156115771245
101815514 -0.004156421643279581 0.005550374938134412
101845276 -0.004242167834720158 0.005489935260385913
101875038 -0.004305540357067416 0.005423150057658713
101904800 -0.004398597380227022 0.005343838046936587
101934562 -0.004473893019559553 0.005269205880615601
101964324 -0.0044422269071441485 0.005273890881102337
101994086 -0.004351779803174356 0.00533811380445023
102023848 -0.004274034654100051 0.005381466264436127
102053610 -0.004188147848585942 0.005432369154352853
102083372 -0.004101302820358577 0.00546983955729331
102113134 -0.004006140000920962 0.005515064957681494
102142896 -0.0044200935736712615 0.005657748166319273
102172658 -0.0038265090279954467 0.005574924377378664
102202420 -0.0037416408390514213 0.005614185440221141
102232182 -0.00371207584179715 0.005641422869558539
102261944 -0.003792166489785816 0.005677429180073483
102291706 -0.003890067655445692 0.005704587008234534
102321468 -0.003975729152804739 0.005737558809902905
102351230 -0.004061050859587384 0.005752581223832905
102380992 -0.004161927534231241 0.005765435450151857
102410754 -0.004264310441856677 0.0057961816001890305
102440516 -0.0043661353312346145 0.005808246560062875
102470278 -0.004462856296904239 0.005822263244263212
102500040 -0.0045741063803745995 0.005836690447380573
102529802 -0.004520257697082977 0.005860507166546883
102559564 -0.004461903753212218 0.005867401052281571
102589326 -0.004413642574037508 0.00589711008591832
102619088 -0.004352344344636302 0.005900835113878161
102648850 -0.0038834298532750017 0.005854731702292901
102678612 -0.004237919245950823 0.005940291773300811
102708374 -0.004184586708802914 0.005961304613448092
102738136 -0.004126629926035289 0.005980687599167671
102767898 -0.004071507273504106 0.005981834510862115
102797660 -0.004039544965576778 0.005969579622200544
102827422 -0.004021554410143369 0.005937096193932539
102857184 -0.0040168600317858445 0.005910128325024323
102886946 -0.003996552864846392 0.0058840664502068695
102916708 -0.0039837608604743205 0.00585884296463591
102946470 -0.003978203624900121 0.005822528068289205
102976232 -0.003955212295537233 0.005800410366252871
103005994 -0.003943930799476877 0.005766190596779475
103035756 -0.003933144056769184 0.005741081999693554
103065518 -0.003929287208416938 0.005732239244837635
103095280 -0.003934498188620893 0.005759159922290154
103125042 -0.003933885208597963 0.00579196139249727
103154804 -0.003932686088138298 0.0058060862021482515
103184566 -0.003935067966244192 0.005841978928965889
103214328 -0.003939349500408039 0.005864475513301756
103244090 -0.003940748786124701 0.005891762790954475
103273852 -0.003943641074261126 0.005918888739740641
103303614 -0.003950226590691619 0.005941303540207985
103333376 -0.003959993779201639 0.005969994537760018
103363138 -0.0038603889870761367 0.005967741625220731
103392900 -0.0037663636600787525 0.005960715709982488
103422662 -0.003683170556809116 0.005962357134639022
103452424 -0.003593463315591285 0.005951333020502522
103482186 -0.0035144144784870325 0.005945569753475127
103511948 -0.0034197978258443053 0.005935858921072214
103541710 -0.003346800241035394 0.005918952211428693
103571472 -0.0032646327161576665 0.0059162686305540765
103601234 -0.0031855354270845264 0.005896072730351102
103630996 -0.003187762570120533 0.0058914849285099605
103660758 -0.003241971388213205 0.005884521343302416
103690520 -0.0032742010681654833 0.00587466437773841
103720282 -0.003332477343264681 0.005863491650429959
103750044 -0.0033744958263248995 0.005863008142300487
103779806 -0.0034207857560570776 0.005852949079035016
103809568 -0.0034690895969548665 0.0058458043273374345
103839330 -0.0035188232828101446 0.00583563835102996
103869092 -0.0035641300568446262 0.0058134408497895725
103898854 -0.0036032035856913085 0.005809751938507671
103928616 -0.0036428815695051927 0.0058372699545131725
103958378 -0.0036897237510719744 0.00586577241372446
103988140 -0.0037309458895399914 0.0058787083004460065
104017902 -0.003774880541237157 0.005903416047822577
104047664 -0.003811470823313188 0.005929521207049417
104077426 -0.003853012765483678 0.005947972813595854
104107188 -0.0039045814148470906 0.005966066561204521
104136950 -0.003941000608945784 0.0059937900039317045
104166712 -0.003987604147893951 0.006014675074313758
104196474 -0.003978999820053723 0.006058076097448477
104226236 -0.003958964640245128 0.006094989045569383
104255998 -0.00395180921190053 0.006141628800692795
104285760 -0.003936858221771827 0.006175930557513536
104315522 -0.0039313905233886665 0.0062118784211744405
104345284 -0.003914480905309953 0.006258657669406552
104375046 -0.0038993206573401124 0.006313615545900267
104404808 -0.003890917101946232 0.006363945010024828
104434570 -0.0038807923866709874 0.006412519433374379
104464332 -0.00386605708783943 0.006380218903623731
104494094 -0.0038553939060517713 0.006324244532527763
104523856 -0.0038455693194189237 0.006266522746272387
104553618 -0.0038369908159487003 0.006217201730022292
104583380 -0.003832755882838368 0.006160226572147868
104613142 -0.0038208468954700294 0.006106188986044641
104642904 -0.0038098178639944546 0.006049387807356226
104672666 -0.0038030368423614585 0.005994139967724187
104702428 -0.0037932641041224647 0.00594094839717563
104732190 -0.0037789945760189386 0.005923344758206823
104761952 -0.003757630967625687 0.005996857091749561
104791714 -0.0037438282600844425 0.006069178616969014
104821476 -0.003724975852110929 0.006141394407686799
104851238 -0.003702267634276517 0.006211252941571561
104881000 -0.0036799799591277185 0.006286785987198362
104910762 -0.0036550831690643905 0.00636798041839668
104940524 -0.003637236165498168 0.00643586596063742
104970286 -0.0036080231975408523 0.006510798208064945
105000048 -0.003566228643635884 0.006589395607277208
