# HZ S RI R 50
90000000 -0.0004127409383323049 0.0053254658455365155
90029762 -0.00037835369581628816 0.005351040778227929
90059524 -0.0006013602187772902 0.0053632744964273405
90089286 -0.0004658511370708756 0.005408450442699522
90119048 -0.0006430854511285573 0.005425873087409717
90148810 -0.000503865257549935 0.0054664963939301
90178572 -0.0005275340617451164 0.005498071049929533
90208334 -0.0004989358081436172 0.005532815384502114
90238096 -0.0007298611990809563 0.0055460534611797615
90267858 -0.0005948606580897134 0.005590018100944234
90297620 -0.0005843390977949951 0.00556930435343303
90327382 -0.0005051495847318987 0.005523330869438085
90357144 -0.0005255280488753661 0.005470547311285169
90386906 -0.00045385955655224773 0.005429060540776842
90416668 -0.0006239212291305439 0.00536969725912221
90446430 -0.00045027889381399203 0.005335653440996193
90476192 -0.00037630225394467834 0.005294304530356494
90505954 -0.0003513733438727855 0.0052489319051482
90535716 -0.00037352032576698816 0.00520175625906839
90565478 -0.0002970350159148164 0.005180478179619808
90595240 -0.00030419535235260076 0.005184425906657667
90625002 -0.0002635256355791946 0.005193368318123293
90654764 -0.00017599993962109518 0.005204201726447267
90684526 -0.0001314414547578506 0.005213365524064334
90714288 -0.00013993480788284862 0.005215341768011853
90744050 -9.760503882739993e-05 0.005223330256556316
90773812 -1.1022714078205344e-05 0.005229079578355513
90803574 -1.060591261142518e-05 0.00523726716329635
90833336 7.647583592938827e-05 0.005247863150622988
90863098 0.00010038962553118224 0.0052153881268306775
90892860 8.442573396584193e-05 0.005186965342556363
90922622 0.00015433992746294794 0.005164334411076718
90952384 0.00017757429819237658 0.00513477977776586
90982146 0.00016189102431819023 0.005103489368412478
91011908 0.0002274708816253889 0.005076980342840839
91041670 0.00026001589690307156 0.005038714233993785
91071432 0.00028350986678282643 0.005010218402716251
91101194 0.00018861648149214844 0.004983833005487232
91130956 0.00034244624381374545 0.004993644570734538
91160718 0.0002868167956856057 0.005023539688616445
91190480 0.0002658536134331242 0.005048021141639652
91220242 0.00013206978875180298 0.005072794657941188
91250004 0.00023105151492708984 0.005102989409544867
91279766 4.271959878861949e-05 0.005128495446711055
91309528 0.00017965433525180314 0.005163349900297153
91339290 0.00012061062897607025 0.005185902552205518
91369052 0.00013693189172858075 0.005216433097991238
91398814 -3.117368862681705e-05 0.005215295791491714
91428576 9.234115664283835e-05 0.005191891469411163
91458338 0.000136750660139733 0.005169307572272587
91488100 0.0001122661804318028 0.00513563378338543
91517862 0.00011676708138116819 0.005109840293867833
91547624 0.0001684625771462711 0.005081401369160276
91577386 0.00017393794028332197 0.0050541951863174416
91607148 0.00015234276812284127 0.00502143966893647
91636910 0.0001605936312196928 0.004994102764062695
91666672 0.00020612791292742676 0.0049748300582454575
91696434 0.0002471306578647731 0.004968724254085066
91726196 0.0003612478884997128 0.004966782342820552
91755958 0.0004367930395500882 0.004963988067594297
91785720 0.0004838940349183362 0.004955953076231437
91815482 0.0005934509617170419 0.004952643251721236
91845244 0.000671888015334842 0.004937461295631155
91875006 0.0007200730108802525 0.004926930993336355
91904768 0.0006992002326389056 0.004915049278665359
91934530 0.0008786790958525248 0.004898136920348009
91964292 0.0009108691171824548 0.004898764749872305
91994054 0.0009588447903413922 0.004906855906310257
92023816 0.0008379913155329896 0.004923659684710684
92053578 0.0009555544431000372 0.004930671141849103
92083340 0.0009676194678975517 0.004940418293986463
92113102 0.0010194255766614302 0.004949853481764032
92142864 0.000999073160613841 0.004958626532883949
92172626 0.0010469112644990064 0.00496942680443793
92202388 0.0009292336616089537 0.004983150243083835
92232150 0.001033566244867742 0.004970862683286319
92261912 0.0009255696284999293 0.004911154494304382
92291674 0.001037067911970823 0.004850847844658723
92321436 0.0009968509162682259 0.004797489540846839
92351198 0.0010132736917528096 0.004743105383290053
92380960 0.000971641160950222 0.004686848794579939
92410722 0.0009625662339475439 0.004634115894481927
92440484 0.0009832298087340218 0.0045750906979653855
92470246 0.0009786065202562074 0.004523778011424987
92500008 0.0009458543617815078 0.004472584839192514
92529770 0.000955381021016112 0.004473966887922483
92559532 0.0010013983244311962 0.004476160104266743
92589294 0.0009911607195126591 0.004483107807048009
92619056 0.0010241403588248303 0.0044856166281130065
92648818 0.0010428371745982011 0.004487307780758833
92678580 0.001032458268286523 0.004487163127198558
92708342 0.0010732838990093055 0.004489199198167623
92738104 0.0010921389262792908 0.004494914319231014
92767866 0.001081480565044559 0.004495799295507106
92797628 0.0011406968732585372 0.004483032029078048
92827390 0.001157143548670514 0.004461124438483397
92857152 0.0012069796402974476 0.004439290152767098
92886914 0.001173595230009012 0.00442318735384125
92916676 0.00131945987314174 0.0043971063046198905
92946438 0.001335766816722549 0.0043765473976845526
92976200 0.001383350372123367 0.004350770583223683
93005962 0.0013574383817407001 0.00432752265087918
93035724 0.0014850653702851188 0.004269284016971471
93065486 0.001466347710797874 0.004264460017851691
93095248 0.001634472211100337 0.004197330454232146
93125010 0.0016875566362983111 0.004150507959691183
93154772 0.0017888550722942472 0.0040885251177788205
93184534 0.0017747563504583125 0.004031908654607916
93214296 0.001911696566609322 0.003959652698648233
93244058 0.0019242296544489143 0.00389995503064907
93273820 0.002056955878764472 0.003816122732283792
93303582 0.0021298637522799853 0.0037473233775835975
93333344 0.002211093447718617 0.0036659699178753957
93363106 0.002186265318416863 0.0036529174135014214
93392868 0.0021542550381668385 0.0036374149247566274
93422630 0.002128400836591257 0.0036215985705190887
93452392 0.0021292376702510356 0.0035893174518869244
93482154 0.0020885654554428567 0.003576602398924607
93511916 0.002085720133143246 0.0035472715705876386
93541678 0.0020589250977856785 0.003519068972191753
93571440 0.002026103903422153 0.0034970813326107844
93601202 0.0020286281551465356 0.00345705405425097
93630964 0.0020589283236095795 0.003400196479711974
93660726 0.0020917183372864794 0.0033335851319693127
93690488 0.002160553946324311 0.0032559026017526063
93720250 0.0021925348703140985 0.0031730435957425572
93750012 0.0022448137202417916 0.0031000008764386295
93779774 0.002305852448259445 0.003018195493810632
93809536 0.002297772862286963 0.002948296777157861
93839298 0.0023737792232454407 0.0028485327105264267
93869060 0.002405478786425263 0.002757909013217975
93898822 0.002451085028473526 0.0026638474497021353
93928584 0.0024463526974349533 0.0025826985010302434
93958346 0.0024662804442541356 0.0024912647063954343
93988108 0.0024312923437405124 0.0024215930836894123
94017870 0.0024647336364954143 0.0023160534673561657
94047632 0.002438741367293052 0.002251569755591247
94077394 0.0024869776110862437 0.002119178377407091
94107156 0.0024726068789416 0.0020349219827207293
94136918 0.0024767222047620274 0.0019333742005238296
94166680 0.0024609444457296776 0.0018448249335686982
94196442 0.0025636143814601066 0.0018509003345256248
94226204 0.0026417097699429405 0.0018935981788730273
94255966 0.0027757619768240885 0.0018976276759150841
94285728 0.0028903017097576082 0.0019329119784968953
94315490 0.003028152330017078 0.0019503490467914358
94345252 0.0031814745239425197 0.001994952803462764
94375014 0.0033294527469235374 0.002046635384923282
94404776 0.0034913624442613703 0.0020901326474265423
94434538 0.0036650980232609664 0.0021780765264474192
94464300 0.0035581514844465843 0.0019251938950113833
94494062 0.0033006611843878395 0.0015278613801607732
94523824 0.0030413211144085187 0.001188348005459565
94553586 0.0028046996000936435 0.0009184229551962136
94583348 0.002604347107711941 0.0006763639541004904
94613110 0.0023936370076041305 0.0004950674465601329
94642872 0.0022123541244010742 0.0002996146126543782
94672634 0.002030044028848883 0.00011618937583263453
94702396 0.0018588992011694622 -2.4888926357002808e-05
94732158 0.0017342211495206242 -0.00013688017646952037
94761920 0.0016427635961825597 -0.00025294557096999543
94791682 0.0015607718424278957 -0.00036132923718997466
94821444 0.001457462251802905 -0.00047497924606729045
94851206 0.0013737910262042851 -0.0005776801561203773
94880968 0.0012462293718781753 -0.0006709486707420981
94910730 0.0011384483390047577 -0.0007471265593425962
94940492 0.0010261673534182802 -0.0008385978628331839
94970254 0.000926106332689721 -0.00093945613865466
95000016 0.0007876223687541229 -0.0010163005335247623
95029778 0.0007005875069988187 -0.0011110058469068903
95059540 0.0005516919615291116 -0.0011867419505985062
95089302 0.00046151165846065043 -0.0012848218769630207
95119064 0.00032989535664386827 -0.001362122193361018
95148826 0.00022382848575615874 -0.0014415353997245957
95178588 5.897921649827357e-05 -0.0015004292218188627
95208350 -4.779334005453652e-05 -0.0015647337667256628
95238112 -0.00020952517643417712 -0.001627590089587821
95267874 -0.000342611813525546 -0.0017123049759928666
95297636 -0.0004955178495622798 -0.0017567738934998118
95327398 -0.0006478958101001042 -0.001806170122369965
95357160 -0.0008071970763691229 -0.00184525646748357
95386922 -0.0009736717335878316 -0.0018815029037150405
95416684 -0.0011315176289689727 -0.0018870004552095523
95446446 -0.0012764184413060738 -0.0019104477579374277
95476208 -0.0014368752669638477 -0.001924511909831324
95505970 -0.0016009615001630181 -0.0019302565146751174
95535732 -0.0017593278299086932 -0.0019337072170835686
95565494 -0.0019056923575938888 -0.0019234192722107964
95595256 -0.002071263591382879 -0.0019067974015404402
95625018 -0.0022641411427776004 -0.0018791760484170171
95654780 -0.0024072311480534537 -0.001839142275882865
95684542 -0.0025842443442778986 -0.0017830521491982042
95714304 -0.00273894719117109 -0.0017502682524046611
95744066 -0.0028874721661770316 -0.0016822133369430658
95773828 -0.0030342473520711226 -0.001637051474753634
95803590 -0.0032034288113924067 -0.0015426010541546996
95833352 -0.0033325306672612656 -0.001503634403131841
95863114 -0.003456550923069302 -0.0014226064753095871
95892876 -0.0035333242387515515 -0.001320429789390316
95922638 -0.0036368588141058728 -0.0012364385732425494
95952400 -0.003745417306899918 -0.0011485352943013012
95982162 -0.0038137759112953436 -0.0010515638677352731
96011924 -0.003890291030193127 -0.0019374018969543349
96041686 -0.0039909432859250235 -0.0008551492246653878
96071448 -0.004034823035000793 -0.00074686085021062
96101210 -0.004118875193136501 -0.0006572851438278693
96130972 -0.004307193373041 -0.001586699105743416
96160734 -0.004288626294691889 -0.0004908808184570201
96190496 -0.0043875317332630745 -0.00041215820675849626
96220258 -0.004467075356972358 -0.0003256810717237432
96250020 -0.004547715652770637 -0.00023581885843317328
96279782 -0.004627907765375164 -0.00017289628721839118
96309544 -0.004706188611114525 -8.125339862625215e-05
96339306 -0.004770557262314901 7.970745928957528e-06
96369068 -0.004844302420064997 8.160352400752593e-05
96398830 -0.0049243071386730185 0.0001917409050262258
96428592 -0.005002462850934802 0.00026975373490701113
96458354 -0.005047685134079296 0.0003927865447954664
96488116 -0.004611519600386927 0.0013614630027452598
96517878 -0.005174769043094164 0.0006127772843650888
96547640 -0.005214088239278101 0.000754809189229701
96577402 -0.005272409693180543 0.0008472392568209715
96607164 -0.005322882544978077 0.0009743500797765864
96636926 -0.004757409449380102 0.0018529293211821194
96666688 -0.005428682962484676 0.0011596798862133903
96696450 -0.00540319558163412 0.0012300998308848643
96726212 -0.005392291469809854 0.001275707393924218
96755974 -0.0060065132384495646 0.00041190470936125327
96785736 -0.005346557533672728 0.0014023563196873623
96815498 -0.0059739987250795375 0.0005585143065035664
96845260 -0.005314837761198472 0.001502379443452039
96875022 -0.005288223282029323 0.0015582565206728447
96904784 -0.005271666642919035 0.0015820690436972697
96934546 -0.0051868672499230314 0.001676141925801703
96964308 -0.005236565844370589 0.0016849228290210208
96994070 -0.0052724848149875905 0.0017057498191985767
97023832 -0.0046263932501051635 0.0023664661529962166
97053594 -0.005307739778532943 0.0017700942505362673
97083356 -0.005343287041535999 0.0017740040080024863
97113118 -0.006047149399927273 0.0010454642721238238
97142880 -0.005354785905628954 0.0018540297411139915
97172642 -0.004708693292640548 0.0024859776766300136
97202404 -0.005407640999663232 0.001882116819946071
97232166 -0.005408518835515818 0.001927767213051339
97261928 -0.005428546692096919 0.0019983362192374002
97291690 -0.005411683022832698 0.002086981591600183
97321452 -0.005406524417388873 0.002165166046645102
97351214 -0.005419394288706173 0.0022236920830067757
97380976 -0.005419343875974094 0.002289104669724147
97410738 -0.00539789641003052 0.002378249173045775
97440500 -0.005394445272722436 0.00245821787588152
97470262 -0.004666477633633749 0.0030436115340792885
97500024 -0.005368286812556422 0.002586401176061709
97529786 -0.005407881953300104 0.0026388398301158775
97559548 -0.004652567052367752 0.00322678344701134
97589310 -0.00539065653131392 0.0027971454939221367
97619072 -0.005319264516849592 0.0029232065320634565
97648834 -0.005440946250004354 0.0029091051084567444
97678596 -0.005413091588885158 0.0029919642627363203
97708358 -0.0046527556446328625 0.0035180940700259085
97738120 -0.005425140263482402 0.003124830087630681
97767882 -0.005417975199693843 0.0031867254424063607
97797644 -0.0061765809614752485 0.0027546313249567096
97827406 -0.005321180833802081 0.003322619633704428
97857168 -0.005201747081363538 0.0034116236750037906
97886930 -0.005119269743309215 0.003470932331012638
97916692 -0.0058141204369535696 0.0030976748291923935
97946454 -0.0049661086806972714 0.0035936393777834543
97976216 -0.005618129143589018 0.0032479112015506733
98005978 -0.004116178487297356 0.0040475628772327
98035740 -0.004724280646924163 0.00376635678663086
98065502 -0.004736573556201701 0.0037910444154545544
98095264 -0.004804238397478365 0.0038106438173270093
98125026 -0.004847068086993602 0.0038581259641754435
98154788 -0.004206958354064864 0.004187444658092745
98184550 -0.0050045683631388905 0.003875995766344802
98214312 -0.005074120608877902 0.003902002146601521
98244074 -0.0044010366720420675 0.004245158026339954
98273836 -0.005265052840751275 0.003901171519678063
98303598 -0.005313352159715014 0.0039316030722635845
98333360 -0.005393825480928905 0.00393715688739504
98363122 -0.005420952783084515 0.003915559795385961
98392884 -0.005352047770581643 0.003926167940651503
98422646 -0.005371358598668749 0.0039005729220235592
98452408 -0.0053478089712072595 0.003890157109240543
98482170 -0.005283727371761238 0.003896960453831822
98511932 -0.005304873355534602 0.0038802711883786736
98541694 -0.004492160295731982 0.004223331633299036
98571456 -0.005222047482045187 0.0038818375334030986
98601218 -0.005956682337552642 0.003500468385042541
98630980 -0.005158891632468585 0.003908633158972564
98660742 -0.005120924931352744 0.003971438484986508
98690504 -0.004335149863518783 0.004312620385079263
98720266 -0.0057839676336415265 0.003758718379839948
98750028 -0.004974000960579146 0.004140072687111204
98779790 -0.004932929951944444 0.004197479517470827
98809552 -0.00492792218517808 0.004226069592461748
98839314 -0.004833181940449432 0.004296809851531791
98869076 -0.004834422205739243 0.00433661078765506
98898838 -0.005486254744531369 0.004135905992994374
98928600 -0.004763916232235284 0.004431454394136124
98958362 -0.005516900958099701 0.0041873854588208225
98988124 -0.0048434762288813195 0.004463799096142922
99017886 -0.004804893098934598 0.004497536654685549
99047648 -0.00487436303358288 0.004504469557968789
99077410 -0.004837917829536313 0.004543630517664042
99107172 -0.004849492551353974 0.004569445450596712
99136934 -0.004921128570842827 0.004575390218339715
99166696 -0.004929761237974864 0.004596870423437334
99196458 -0.004880279613739323 0.004603961338576611
99226220 -0.004875991210382264 0.004584756890029758
99255982 -0.004927479352631221 0.004553141734812641
99285744 -0.004875022226347627 0.0045585812105201915
99315506 -0.004927752986305956 0.004517895946560465
99345268 -0.004929727963125877 0.004496948772011511
99375030 -0.004872349600551648 0.004512599513472331
99404792 -0.004924090609519399 0.004475502631749153
99434554 -0.0049221822340675715 0.004455141816801656
99464316 -0.004814519093344043 0.0045186874955348445
99494078 -0.004787863762138662 0.004574274041271492
99523840 -0.00465369706922863 0.004658308143543114
99553602 -0.004570944297054031 0.0047120004524388295
99583364 -0.005143605648804683 0.004571325745416604
99613126 -0.0037229108559182463 0.0050219834427891
99642888 -0.004318338333632809 0.0049080525809183685
99672650 -0.004227236427697576 0.00496234346066559
99702412 -0.004784976072762939 0.0048393297983831815
99732174 -0.004105026488421482 0.005035117788179314
99761936 -0.0039749020371491256 0.005061586089296323
99791698 -0.004243290105153588 0.0049807545389345675
99821460 -0.004239663282750896 0.004961888440206333
99851222 -0.004327003759051632 0.004922229456581356
99880984 -0.004962786999704598 0.0047418917302819875
99910746 -0.0043445293399149 0.0048825648577159155
99940508 -0.005030659394776477 0.004680738948274384
99970270 -0.004418590951100234 0.004834942711622034
100000032 -0.004467817979691112 0.004809213336033885
100029794 -0.004431665877485437 0.004811406554253029
100059556 -0.004420321122958568 0.004831909260047623
100089318 -0.004405124616935693 0.0048494005721656805
100119080 -0.004954434505001032 0.004780367511428268
100148842 -0.004372806551515323 0.0048789045743223795
100178604 -0.004356308275778376 0.004897276507430348
100208366 -0.004331883839634402 0.004914430412277421
100238128 -0.00433107862465103 0.004892465000187052
100267890 -0.0043082228286981696 0.004933791007168788
100297652 -0.004299444128303069 0.004943578875691048
100327414 -0.004296258216179667 0.004949951068142191
100357176 -0.004303128448303084 0.004963299327296431
100386938 -0.004301070878510986 0.004965805907629544
100416700 -0.004289422210178391 0.004973378285010304
100446462 -0.0042994956484652715 0.004982234474185701
100476224 -0.0046751272386246125 0.0049465981280124305
100505986 -0.004298010644864945 0.004999460991186957
100535748 -0.004296674967570515 0.005002465749406435
100565510 -0.004315393550041647 0.005026974270570178
100595272 -0.004367387829610014 0.005046847453121128
100625034 -0.004410344141761174 0.005102475537544459
100654796 -0.0044534635720781595 0.005133881157176529
100684558 -0.0045101549678493 0.0051813607379798616
100714320 -0.0045540167119935355 0.00522868757369032
100744082 -0.004612482802009338 0.005263046206093027
100773844 -0.004658399754127259 0.0053108708727296035
100803606 -0.004720440023305399 0.005348679218630964
100833368 -0.004775075704299034 0.0053854104547774945
100863130 -0.004723724424766211 0.005378527778619519
100892892 -0.00466345209301282 0.005387347144318405
100922654 -0.004612193905910339 0.005377492309605295
100952416 -0.004558289032456562 0.005373494102219641
100982178 -0.004509238310828695 0.005363309515587222
101011940 -0.004451618805462606 0.0053531644211860475
101041702 -0.004394456914128201 0.005337487542970956
101071464 -0.004355741105812282 0.005341851250870173
101101226 -0.004296092587234583 0.005324382088593142
101130988 -0.004279722070808043 0.005336461543213891
101160750 -0.004279205989647626 0.0053304830361633835
101190512 -0.004290902008825963 0.005318644719119014
101220274 -0.004289094546014001 0.005321484943337256
101250036 -0.0042906841024729645 0.005313093935616858
101279798 -0.004288570331917706 0.005306096625875694
101309560 -0.0042918175040284265 0.0053055581677844904
101339322 -0.0043005814716925335 0.0052778786774089655
101369084 -0.004302520393151566 0.005292879188484582
101398846 -0.00428062577339695 0.005307445002401273
101428608 -0.004230641766333923 0.005377694396640628
101458370 -0.004158194609828121 0.0054385707165549935
101488132 -0.0040988382949959865 0.0055030588176387275
101517894 -0.004030263741547229 0.005557277794448707
101547656 -0.003962015422515431 0.0056155126670018405
101577418 -0.0039056641515117724 0.005679418665875971
101607180 -0.0038364068312543896 0.005738236409111659
101636942 -0.003769306540449261 0.005791509879695024
101666704 -0.003696787749693176 0.00584954107525408
101696466 -0.0037867552080730863 0.005808109833346715
101726228 -0.003880582944669888 0.0057438941420916104
101755990 -0.003972901495961949 0.005682786562066287
101785752 -0.00406778888587441 0.005634664901700241
101815514 -0.004147625429424381 0.005575162193998599
101845276 -0.00422526486193441 0.0055097711172307
101875038 -0.004305389663963506 0.005448120439037029
101904800 -0.004390455259019222 0.005371713432557369
101934562 -0.004468329865221764 0.005297627638170853
101964324 -0.004428725244718207 0.005309630580359415
101994086 -0.004353604867747846 0.0053513253553059475
102023848 -0.004254442507172736 0.005396547181302641
102053610 -0.004172248449144957 0.005438089599313835
102083372 -0.004074648208388802 0.005485123068267087
102113134 -0.003988951323477126 0.005529461579846855
102142896 -0.003896995608960016 0.005563736470299324
102172658 -0.003814178527323989 0.005590673897719975
102202420 -0.003722737679836008 0.0056269163298684885
102232182 -0.003691724834508548 0.005664144348462856
102261944 -0.0037779580533443633 0.005687181096260967
102291706 -0.0038675732510456335 0.005715254293917857
102321468 -0.0039572516270124135 0.0057468649048607184
102351230 -0.00404190837478425 0.005763641398528916
102380992 -0.0041476721398196635 0.005773698720428619
102410754 -0.0042345834034731395 0.005799538040247688
102440516 -0.0043469702019859075 0.0058166876400231144
102470278 -0.004437421405084987 0.0058399977365106845
102500040 -0.004549876439443923 0.0058402720014725015
102529802 -0.004490280578202521 0.005865989065530283
102559564 -0.0044402221359993044 0.005877893904275332
102589326 -0.0043794349163651354 0.005897599519261807
102619088 -0.004323446443990213 0.005912627718557471
102648850 -0.00426654343625501 0.0059336063479202275
102678612 -0.004218543386133173 0.005950009266290469
102708374 -0.004164225406286328 0.00596522513656329
102738136 -0.004106586932057937 0.005975928301542857
102767898 -0.004048870550679551 0.005987892948025381
102797660 -0.004019529010767174 0.005978551909926086
102827422 -0.0040150991584730926 0.005952851120804539
102857184 -0.003995295308481759 0.00592664560044218
102886946 -0.003976849078468718 0.005891287743061585
102916708 -0.003968525791415397 0.005863901415204927
102946470 -0.003968084683447787 0.0058293740370496646
102976232 -0.003947457727750374 0.005807808288772547
103005994 -0.003925051828186029 0.005781291599110577
103035756 -0.0039136676976783665 0.005747680304783537
103065518 -0.003910693752181745 0.00574331512934821
103095280 -0.003917871574975804 0.005763753627024731
103125042 -0.00391883991010737 0.0057939622797409706
103154804 -0.003919831967664327 0.0058106643191788545
103184566 -0.0039122812767290885 0.005851354564390917
103214328 -0.003920144071305428 0.005869907597538825
103244090 -0.0039224635049007655 0.005898660061667935
103273852 -0.003927288601089844 0.0059277198839642045
103303614 -0.003928790114519749 0.005950573891473312
103333376 -0.003934209979537047 0.005979277717552561
103363138 -0.0038485778069467596 0.005976807413003406
103392900 -0.003756515861615417 0.005975661521382714
103422662 -0.0036735174454035962 0.005969126122044905
103452424 -0.0035768100292293053 0.005957846708473393
103482186 -0.0034957656279812253 0.005950650667705988
103511948 -0.003414491649700378 0.005942644933599575
103541710 -0.003329342141424924 0.0059358104041218685
103571472 -0.003253785818216197 0.005917286017725895
103601234 -0.0031793918099860237 0.005906504448635056
103630996 -0.003173808021557256 0.005898849277243677
103660758 -0.0032205428624282597 0.005895891314389726
103690520 -0.0032717958709819334 0.005884450159176352
103720282 -0.003323432997142246 0.0058738849994835396
103750044 -0.0033641381053880876 0.005875750904923892
103779806 -0.00340786322456636 0.005859940334504847
103809568 -0.0034619938229703694 0.005849086976717411
103839330 -0.003495971626705803 0.005840880066394889
103869092 -0.00355048864427322 0.005822374683828393
103898854 -0.003584977338533839 0.005827127706666662
103928616 -0.0036293810657328385 0.005852057527867008
103958378 -0.0036732708433778803 0.005870522590089688
103988140 -0.003723860484787595 0.005887711276229208
104017902 -0.0037590183087319686 0.005919825266611519
104047664 -0.0037984362689635663 0.005932974494538901
104077426 -0.003839842988738171 0.005961004041431401
104107188 -0.0038786008204364556 0.005976953451317953
104136950 -0.0039279814056458265 0.006000471851889931
104166712 -0.003976620525324115 0.006019788062487533
104196474 -0.003957110322923968 0.006067286331687528
104226236 -0.003949959624616933 0.006106735128583645
104255998 -0.003942499870913731 0.006155334962418711
104285760 -0.003926530959758313 0.006191281262956017
104315522 -0.003912492166165666 0.006236758783977208
104345284 -0.0038952004932568582 0.006280699651337923
104375046 -0.003886113875554658 0.006331847824845328
104404808 -0.0038613678857848947 0.006379643459120477
104434570 -0.003860000013633581 0.006415894139728416
104464332 -0.003850076046909541 0.006392462318088759
104494094 -0.003836930635457542 0.006338765270691549
104523856 -0.0038301956552992565 0.006287517288569981
104553618 -0.0038152881996155446 0.006219946370761317
104583380 -0.003809329297168283 0.006172566332905212
104613142 -0.0038164718444841958 0.006107855104415433
104642904 -0.0037934094534272963 0.006057385623632857
104672666 -0.003786880227605221 0.006007160009104708
104702428 -0.003775875553574026 0.005952984191854736
104732190 -0.0037614832358453176 0.005939460688577106
104761952 -0.003746610993407426 0.00600950781057591
104791714 -0.0037277502790329293 0.006077345578334434
104821476 -0.0037052408626642346 0.006151514463356032
104851238 -0.003691226285110564 0.006218848652761911
104881000 -0.0036708268231126096 0.006294234559946361
104910762 -0.003636338750450755 0.006368960509443398
104940524 -0.003617613498675781 0.006450545630679056
104970286 -0.003596433914404303 0.0065208658776186815
105000048 -0.0035732391366221287 0.006598537616753609
