# HZ S RI R 50
90000000 -0.0003907396362495192 0.005305847240100635
90029762 -0.0003583792084153619 0.00533870159638752
90059524 -0.00058169322087795 0.005354822579974649
90089286 -0.0004477153227642665 0.005394614758422575
90119048 -0.000617110165482062 0.005419122649389408
90148810 -0.0004831041269394821 0.005453465326759441
90178572 -0.0005046152149605096 0.00548826654315193
90208334 -0.00047744702027150023 0.005522753370533416
90238096 -0.0007072603806831197 0.005533782759703331
90267858 -0.0005725720443083383 0.005576086631948682
90297620 -0.0005610057616066791 0.0055555126000637915
90327382 -0.000481166277182961 0.005509577502975803
90357144 -0.0005032816019939397 0.005460033728314823
90386906 -0.0004286516076371268 0.005415395314274457
90416668 -0.0005979442885516156 0.005353223942800482
90446430 -0.00042290439706007545 0.0053199033986863755
90476192 -0.00035409733912805907 0.005282267921434737
90505954 -0.0003264062240082677 0.005234256376966655
90535716 -0.0003507373516526638 0.005191936590302468
90565478 -0.00027324201568129473 0.005166654609376715
90595240 -0.0002771494417332181 0.0051677184641852995
90625002 -0.00023907267081431602 0.005180433563768422
90654764 -0.00015315973318222168 0.005186648894084559
90684526 -0.00010954276253565031 0.005196816207959117
90714288 -0.00011472879349076484 0.005200786798643193
90744050 -7.293094017063216e-05 0.00520856898825714
90773812 1.531063655971968e-05 0.005213938846982618
90803574 1.2575574927061388e-05 0.005219312645039574
90833336 0.0001020396398693504 0.0052256743043274925
90863098 0.00013019993186743278 0.005194645531237374
90892860 0.00011069621646186704 0.005167175740098393
90922622 0.00017732526658416323 0.005142948189783822
90952384 0.00020033070505768295 0.005120202730631774
90982146 0.00018887716921066355 0.005087948928680727
91011908 0.00025656532169962163 0.005059524618985814
91041670 0.00023718498087560666 0.00503313031650879
91071432 0.0002621440826486514 0.005000793196098946
91101194 0.00017327386428486584 0.004973319889297825
91130956 0.0003197279881369046 0.004985000784761615
91160718 0.00027259327958342007 0.005007724075067666
91190480 0.0002491667754129031 0.005032783710018827
91220242 0.00011538210907784559 0.005058831552374362
91250004 0.00021193567940968843 0.00508666135856154
91279766 7.381891624946366e-05 0.0051091494784399945
91309528 0.0002082629433989031 0.005139293147017875
91339290 0.0001494101184148804 0.005165719738959733
91369052 0.00017348113236897303 0.005192144361135568
91398814 2.0714383669307783e-07 0.005189383673869735
91428576 0.00012675207218597784 0.005170414697156563
91458338 0.00017526262213771526 0.005140425198499591
91488100 0.00014258571403945913 0.005110510626222451
91517862 0.00015270429299430846 0.005086084032056361
91547624 0.00020210547334369964 0.005059167857372632
91577386 0.0002059881678015278 0.005030178939249307
91607148 0.00018652559031392735 0.004997604826778383
91636910 0.00019656763536231674 0.0049704201512523576
91666672 0.00023638995353988037 0.00494485506042321
91696434 0.0002807492297531542 0.004942981620347231
91726196 0.00039221575848761095 0.004938528768998803
91755958 0.0004690964115613474 0.004936730852480742
91785720 0.0005135549849026315 0.004926302189130384
91815482 0.0006254722529078515 0.004919588854070616
91845244 0.0007081082841416948 0.004907444650746579
91875006 0.0007485676902473913 0.004892440975671349
91904768 0.000732960706986685 0.004882573898820734
91934530 0.0009116636780626121 0.0048603060841836245
91964292 0.0009489290593850172 0.004857112516329689
91994054 0.000995962922537341 0.004871228647676635
92023816 0.0008782385416476189 0.004882445263563678
92053578 0.0009916693349290193 0.0048904093932825975
92083340 0.001007503535444564 0.004897085654543525
92113102 0.0010542205879727014 0.0049059927400899915
92142864 0.0010403797088768918 0.0049153418869911
92172626 0.001085630694509565 0.00492006574351734
92202388 0.0009737214497143109 0.0049346142178400745
92232150 0.0010756794429329977 0.004918765675661533
92261912 0.0009688971376591215 0.004865542672894509
92291674 0.0010750983312566448 0.0048054880708462994
92321436 0.0010421367405050105 0.004752262911396894
92351198 0.0010534895766357393 0.004697362877380441
92380960 0.0010144683239831523 0.004638460036903499
92410722 0.0010066997064606708 0.004585138382467411
92440484 0.001027556204543233 0.004528286437774229
92470246 0.0010200914342161245 0.004476532195507626
92500008 0.0009842652237632536 0.004421606748202582
92529770 0.000997856121410054 0.00442709359830605
92559532 0.0010432892111527478 0.004426961823746034
92589294 0.0010283447960187902 0.0044325908644399495
92619056 0.0010745988287502997 0.004430580858911272
92648818 0.0010861049160256014 0.004434645064776544
92678580 0.0010819119162934236 0.004432543468782202
92708342 0.0011181875568791817 0.004435221958120426
92738104 0.0011354209562786347 0.004437952251952396
92767866 0.0011250950524744133 0.004431201559159882
92797628 0.0011889983163558121 0.004419711707213813
92827390 0.0012088266347346087 0.0044030057829740005
92857152 0.0012519650122399697 0.004381611881505797
92886914 0.001263478237296546 0.004341360532267237
92916676 0.0014118372807209426 0.004316879745711623
92946438 0.001432042201028414 0.004299265614741807
92976200 0.0014802051970106238 0.0042625278166620855
93005962 0.0013957761971741824 0.004251938282883836
93035724 0.001513131994482381 0.0042249834072450535
93065486 0.0014984802334971513 0.004189779882094748
93095248 0.0016666037225334096 0.0041305407244914315
93125010 0.0017273647942889956 0.004071224746465638
93154772 0.001823375163282485 0.004005011361048983
93184534 0.0018097170065053546 0.0039574732077234075
93214296 0.0019406777411104003 0.0038775711823346264
93244058 0.001959056649689689 0.0038182911997127963
93273820 0.002084006349764153 0.0037345226317405562
93303582 0.0021517797164590253 0.003657168485736295
93333344 0.0022368774621356756 0.0035752936869136156
93363106 0.00221816439105655 0.003560179322430795
93392868 0.002173324739398568 0.0035496727382287887
93422630 0.0021583748624582036 0.0035255037763228555
93452392 0.002153397173444068 0.003500506134463232
93482154 0.0021239762126014383 0.003477922486352958
93511916 0.002118912548481087 0.0034465450403759227
93541678 0.002096842597930072 0.0034205161113791244
93571440 0.0020574242949158174 0.00339105164458412
93601202 0.002052471778643039 0.0033500003436429744
93630964 0.0020844323018289856 0.0032897399141884522
93660726 0.0021162005545428235 0.003227207073883984
93690488 0.0021939938798683227 0.0031479264459397605
93720250 0.002171890485231055 0.003091320323124988
93750012 0.0022631169620282274 0.002982089397261001
93779774 0.002319997780740238 0.002894614084345929
93809536 0.0023101019152783867 0.002829844534461076
93839298 0.002380304114844958 0.002725856753922882
93869060 0.002426333572556512 0.0026286898225014875
93898822 0.0024568854290993912 0.002531493979516106
93928584 0.002458281822208602 0.002451885053126997
93958346 0.0024758275180920535 0.002352550959747861
93988108 0.002428750869578088 0.0022945025337727265
94017870 0.002471022479013839 0.002178510668247736
94047632 0.0024363164900371415 0.002098129691750744
94077394 0.0024680256058119037 0.0019893587801400854
94107156 0.002462294716402241 0.0018958004047443073
94136918 0.002460174112044671 0.0017885813823577852
94166680 0.002439631513805782 0.001694733644931451
94196442 0.0025346626658395805 0.0017098866310784058
94226204 0.0026211983266620446 0.0017219232656874763
94255966 0.0027591233946061746 0.0017080064313787348
94285728 0.0028747958053282796 0.0017394541765559822
94315490 0.0030094108056504254 0.0017458360283097666
94345252 0.0031495672373617577 0.001763877241009366
94375014 0.0032926023941912655 0.0018189841834995633
94404776 0.003449791716405329 0.0018333791021323382
94434538 0.0036556201523738363 0.0018884094286236244
94464300 0.0035086816773689587 0.0016354353026958271
94494062 0.0032392039033005316 0.0012611365313883417
94523824 0.002982121319240273 0.0009563458592396957
94553586 0.0027438595897640544 0.0007056277983098664
94583348 0.0025431747454131674 0.0004431227177004664
94613110 0.0023182766997727057 0.00027071461705423233
94642872 0.0021415211391572725 8.93793197585121e-05
94672634 0.0019542792136888706 -5.8118206411944965e-05
94702396 0.0017808250273042062 -0.00020962027192706197
94732158 0.0016564944645493448 -0.00031880782910534205
94761920 0.0015608399996599413 -0.00043635134847582987
94791682 0.0014579222748641965 -0.0005106506119332598
94821444 0.0013513328619922692 -0.0006347061703177519
94851206 0.001257834098167302 -0.0007272277752523003
94880968 0.001146662710898111 -0.0008126310108408651
94910730 0.0010319290093595535 -0.000922700639246967
94940492 0.0009050382956977329 -0.0010134550512748207
94970254 0.0008138882782092101 -0.0010983657701691789
95000016 0.0006818793602832836 -0.0011744382878758881
95029778 0.0005781305989394324 -0.00125279655111804
95059540 0.00042680071994168794 -0.0013379088840404648
95089302 0.00033627500424713896 -0.0014263883323810483
95119064 0.0001853892474489885 -0.001496758618239016
95148826 9.499281155248101e-05 -0.0015976320689749406
95178588 -7.774388776221723e-05 -0.00164887670393211
95208350 -0.00021602448094129703 -0.00172094712067365
95238112 -0.00037358419263074034 -0.0017869335579229876
95267874 -0.0005143918608018276 -0.0018337560453829047
95297636 -0.0006521744541282488 -0.0018996360829327242
95327398 -0.0008189998393726605 -0.001931802754189767
95357160 -0.0009694399105893877 -0.0019900689426291863
95386922 -0.0011391086867017545 -0.0020054679578757066
95416684 -0.0012950360253700364 -0.0020178985043265533
95446446 -0.0014553035394456193 -0.0020400288756458403
95476208 -0.001631124075280287 -0.002050825035354963
95505970 -0.001771864112782025 -0.0020650727500098427
95535732 -0.0019521737297056013 -0.0020428456857770495
95565494 -0.0021076657137441973 -0.0020080885912487556
95595256 -0.0022815768432664653 -0.0020181464275834332
95625018 -0.0024498968507037588 -0.0019763821753226553
95654780 -0.002602140643575107 -0.001939602885779823
95684542 -0.002774888006308823 -0.0018930426868551725
95714304 -0.002932595163557828 -0.0017995760681058675
95744066 -0.00308580130359208 -0.0017566647214186078
95773828 -0.0032375149049456028 -0.0017256346811876484
95803590 -0.0034072482027651804 -0.0016213335482656724
95833352 -0.00354868147498664 -0.001560191352674793
95863114 -0.0036601589054507276 -0.001448528729067331
95892876 -0.003743651672847549 -0.0013405163244692118
95922638 -0.003864597104614205 -0.0012661435427368337
95952400 -0.003954138850111407 -0.001164536709611269
95982162 -0.004033183810070901 -0.0010697409004241129
96011924 -0.00420951132826605 -0.0017891259298589129
96041686 -0.004218519291812452 -0.0006333973616541229
96071448 -0.004280555001472678 -0.0005381183896452726
96101210 -0.004322286352437088 -0.00043682171993427615
96130972 -0.004588323898313292 -0.001393416140195416
96160734 -0.004498608776345528 -0.00026194057640283
96190496 -0.004585402279959218 -0.00016572167204035966
96220258 -0.004656339458095253 -0.00010570244545174468
96250020 -0.004728768295321643 1.2323930103359276e-05
96279782 -0.0047909505097689506 8.374663871808185e-05
96309544 -0.004879700655732948 0.00016490683798635748
96339306 -0.004936971664536271 0.0002712350762224578
96369068 -0.004994565428845802 0.00033581955154702805
96398830 -0.005062637166036099 0.0004405182068356496
96428592 -0.00511460022845198 0.0005602888537239652
96458354 -0.005173366809220148 0.0006503505506094935
96488116 -0.0046607327104955815 0.0015832808792410572
96517878 -0.005280380592629623 0.0008940955872681142
96547640 -0.005319956310067422 0.0009996166529240144
96577402 -0.005351153231031179 0.0010983334720993077
96607164 -0.0054078928906463285 0.001220815763364442
96636926 -0.0047948784412830655 0.0020880036074394912
96666688 -0.005482467021617297 0.0014218008943996463
96696450 -0.005451399294737403 0.0015021068535410842
96726212 -0.005445363356514594 0.0015155925769228798
96755974 -0.006093366879200207 0.0006959018823992964
96785736 -0.005390613927481205 0.0016468025979939215
96815498 -0.006065492679921369 0.0008201638081411964
96845260 -0.005335664626633464 0.0017241993348428041
96875022 -0.005320252058903528 0.001761387198625478
96904784 -0.005292778858984639 0.001796015127196008
96934546 -0.00520375302942907 0.0019080102658602582
96964308 -0.005278433927357671 0.0018818454662130346
96994070 -0.005284767108846483 0.0019039727695237985
97023832 -0.004620052940695472 0.0025440182000950984
97053594 -0.005315439266829889 0.0019538384723385123
97083356 -0.005341220911748465 0.0019797905433775647
97113118 -0.006072664423287466 0.001272730936178168
97142880 -0.005359583195758514 0.002029856179574665
97172642 -0.004686934030557285 0.0026392456635336826
97202404 -0.005401256408793077 0.0020609987788552954
97232166 -0.005395428209331985 0.0021131500805866483
97261928 -0.005420480002877309 0.0021652203994581678
97291690 -0.0053977711222142795 0.0022537062579933887
97321452 -0.0053898099440490115 0.002334528098378973
97351214 -0.005416448577288765 0.0023778735405854436
97380976 -0.005399182143477419 0.0024487403105085377
97410738 -0.005370268532878441 0.0025468999601496864
97440500 -0.0053615140065082474 0.002621583672305916
97470262 -0.004633993746848825 0.003179731521567403
97500024 -0.005345057070314749 0.0027397751872731083
97529786 -0.005377930093808748 0.0027991180905583796
97559548 -0.004616689735508693 0.0033592413142748173
97589310 -0.005363419966381107 0.0029463926491937508
97619072 -0.0052858287119411495 0.0030551480754976994
97648834 -0.005404288200396832 0.0030541573326078315
97678596 -0.005381313118851287 0.003134367614565669
97708358 -0.004608770775058355 0.0036280056579266738
97738120 -0.005369805289119649 0.0032653602547524645
97767882 -0.005371990204412875 0.003324368912663248
97797644 -0.006139128901952735 0.0028955197180317565
97827406 -0.005270240429919005 0.0034318124234968645
97857168 -0.005171966218623292 0.003519404030704654
97886930 -0.005085870964961435 0.003589039597399591
97916692 -0.005752897675555297 0.0032175357629475516
97946454 -0.004916602144306293 0.003702605721242744
97976216 -0.005569312198303675 0.0033669155937157513
98005978 -0.004064258341660318 0.004121755447042019
98035740 -0.0046874803942458 0.003849554175656479
98065502 -0.004693244231589418 0.003885848002069494
98095264 -0.00476178801844308 0.003891012596788356
98125026 -0.0047941690055594835 0.0039242546519542695
98154788 -0.0041527373917569985 0.004267876840068133
98184550 -0.0049466412610977405 0.003965466168648235
98214312 -0.005021182286683487 0.003981453830895938
98244074 -0.004356950258981728 0.004316766977495599
98273836 -0.005220812434618911 0.003991663996929521
98303598 -0.005262543750838923 0.004017414360007307
98333360 -0.0053367979246860976 0.004015163952171663
98363122 -0.0053688343821613254 0.003990353624501368
98392884 -0.0053054339236474094 0.004012250586580369
98422646 -0.005317106823141746 0.003978656612150458
98452408 -0.0053048936942978525 0.003969287359288091
98482170 -0.005226659771154083 0.003989212668338123
98511932 -0.00525423731114463 0.003954144029003296
98541694 -0.004454711701790876 0.004290167112585594
98571456 -0.005168004561241036 0.003966958683069008
98601218 -0.005902037957362872 0.003588855829506555
98630980 -0.005110931718697131 0.003985851807936132
98660742 -0.00507321125775838 0.004040254276786713
98690504 -0.004293646262428029 0.004383641889251734
98720266 -0.005715933312769816 0.0038333794112216536
98750028 -0.004923851187685273 0.004208622313572258
98779790 -0.004873644235144034 0.004265551829972468
98809552 -0.004872449132617776 0.004297537133672923
98839314 -0.004777908300019812 0.004371465130750701
98869076 -0.004782853003625719 0.004396453811071336
98898838 -0.005442645949700197 0.004196545902154492
98928600 -0.0047170072888282405 0.0044848095042922505
98958362 -0.005460054536804847 0.004248215836892202
98988124 -0.004789914145967473 0.0045106130085709765
99017886 -0.004780602813928196 0.004577002248915161
99047648 -0.004837427094972022 0.004568657339539116
99077410 -0.0047988223356867634 0.0046074376951385915
99107172 -0.005207552209551086 0.004700745673149342
99136934 -0.004891860491088863 0.004635244956020688
99166696 -0.004896240585373048 0.0046629782205641086
99196458 -0.004843327900707315 0.004660763732973896
99226220 -0.004845448539554815 0.004645301448094857
99255982 -0.004889679564227993 0.004613278025302328
99285744 -0.004841794480370178 0.004610492061316268
99315506 -0.004901390620142462 0.0045607819238520815
99345268 -0.004900719806555929 0.004567974412768583
99375030 -0.004831221690997228 0.00456151236461519
99404792 -0.004890104275369717 0.004534000630218879
99434554 -0.0048879179425498805 0.004513935571585492
99464316 -0.004772110881946796 0.0045783252939952885
99494078 -0.004760128043014632 0.0046299989741320526
99523840 -0.004612621838556145 0.004708342483427059
99553602 -0.004523793985652652 0.004773154864518526
99583364 -0.005099653980064051 0.004647146852413629
99613126 -0.0036814712103860813 0.005067392342206473
99642888 -0.004193127966560725 0.004957685405514404
99672650 -0.004192582419293627 0.005005659174244099
99702412 -0.004730427422673901 0.004886478067825822
99732174 -0.004063856531721186 0.005074014162292374
99761936 -0.00393581753357492 0.005089770476925151
99791698 -0.0042047201717624934 0.005012865842623156
99821460 -0.004188549489588371 0.005005754815577888
99851222 -0.004290612015310272 0.0049689654380353
99880984 -0.004904608753765056 0.004787308424130761
99910746 -0.004309710403701667 0.004925177416439345
99940508 -0.004980962344941612 0.004726412541120716
99970270 -0.0043711404762794386 0.0048715407951429035
100000032 -0.004419036613225833 0.0048456386568944245
100029794 -0.004393471852146002 0.004846959152876023
100059556 -0.004376460688268332 0.0048628124638230566
100089318 -0.004364199114602993 0.004871142233433852
100119080 -0.004344266868391082 0.0048917766290262465
100148842 -0.00432010228378539 0.004916402825831799
100178604 -0.004312062673285548 0.0049258020388132364
100208366 -0.004295688895873209 0.004939182429741541
100238128 -0.0042712239597272085 0.004944250326012303
100267890 -0.0042525668720182035 0.004955508864217106
100297652 -0.004255551199156204 0.00496531650051081
100327414 -0.004261554679603927 0.004972249565856278
100357176 -0.004254087460246653 0.004985355353820635
100386938 -0.004260413464435212 0.0049971444950067
100416700 -0.004251774169301439 0.005001333411329598
100446462 -0.0042573832432298234 0.005009891497582284
100476224 -0.0042514756432119796 0.005008055260584149
100505986 -0.004260571791569706 0.005018500121307937
100535748 -0.004253261332088912 0.00503427643827127
100565510 -0.004274700747475548 0.005053495134764826
100595272 -0.004323039560213968 0.00509653685958549
100625034 -0.00437256935451767 0.005118067663710151
100654796 -0.00441471093825881 0.005167826056439309
100684558 -0.004460361913640219 0.005205997277683836
100714320 -0.004521629023502329 0.0052438822486262264
100744082 -0.004572777965819316 0.0052837413165306825
100773844 -0.004621999929614369 0.005330047309512957
100803606 -0.004682817413332931 0.005366405061145947
100833368 -0.004734953497277639 0.005411872349049814
100863130 -0.00467034055661709 0.0054027878442702145
100892892 -0.004625626497976347 0.005398549674081833
100922654 -0.004568223695409073 0.0053987570126057755
100952416 -0.004525814109214671 0.005382641923171524
100982178 -0.004463445998357354 0.0053772183018120125
101011940 -0.004412382330037395 0.005361168740077686
101041702 -0.004357598470674203 0.005365416222653245
101071464 -0.004300890070294445 0.005355132281443847
101101226 -0.004264781723232857 0.0053529730361646264
101130988 -0.004242220860111885 0.005331905158068689
101160750 -0.00424816977508109 0.0053319095212068296
101190512 -0.0042576121823510995 0.005330631699855409
101220274 -0.004244114981973173 0.005328898544747721
101250036 -0.004251998859541309 0.005327378925933513
101279798 -0.004253286592268661 0.005317179487027108
101309560 -0.004258350112811614 0.0053179694369941514
101339322 -0.004260356718561732 0.005312810748803335
101369084 -0.004265810924576701 0.005301341695980003
101398846 -0.004243182662427421 0.005322302708182189
101428608 -0.0041891564087411905 0.005388276479911487
101458370 -0.004128442370683587 0.00544779786096956
101488132 -0.004065479692428805 0.00550989987151138
101517894 -0.004000409973491798 0.005572413296019187
101547656 -0.00393669786653016 0.005634732134328795
101577418 -0.0038798665990146773 0.005687195348618194
101607180 -0.003806336757525398 0.005742633332291374
101636942 -0.003733324621620412 0.005795954972492346
101666704 -0.0036680180056432882 0.005852789612581609
101696466 -0.003759771595685306 0.0058046006773525265
101726228 -0.0038552103424923196 0.005749866629405302
101755990 -0.003936817988049408 0.005697105184800668
101785752 -0.004045205780100394 0.0056393016460880635
101815514 -0.004125574294144152 0.005578773723732582
101845276 -0.004199058928117752 0.005511878015372663
101875038 -0.004286791866468515 0.005448406884447634
101904800 -0.004368125257796267 0.005373467383226332
101934562 -0.00443649960209792 0.005303252330026029
101964324 -0.004409997266145704 0.005312909012603224
101994086 -0.004324711552918684 0.005362419442377291
102023848 -0.0042347665136392406 0.0054117194436746705
102053610 -0.004143757788406422 0.005449701755932364
102083372 -0.004072127597100544 0.00549596157286629
102113134 -0.0039879426004289335 0.005533893830970168
102142896 -0.0038915696793091342 0.005570544901185713
102172658 -0.0037982473402215573 0.005609443535762413
102202420 -0.0037085309801316597 0.005642530587389121
102232182 -0.0036785061496579776 0.005677168468342526
102261944 -0.0037645091996321538 0.005691723605274465
102291706 -0.0037726862742697336 0.005717753552028145
102321468 -0.003869204452152713 0.005745902066209638
102351230 -0.0040330407198856276 0.005776742628870277
102380992 -0.004049641002474411 0.00579463837013339
102410754 -0.004226999865829741 0.005818551108388323
102440516 -0.004331767841326432 0.005828323307785884
102470278 -0.004435585057122747 0.005844779943895632
102500040 -0.004537857611253864 0.005860338346458362
102529802 -0.004475814057530796 0.005872636282619188
102559564 -0.004422983756461193 0.005896806901513372
102589326 -0.0043685401092412365 0.005913543263311765
102619088 -0.004313840949220808 0.005933587576255956
102648850 -0.004266646758410639 0.0059458097869649305
102678612 -0.004205025338884795 0.0059660041898456926
102708374 -0.0041486055842685126 0.005977270366500497
102738136 -0.00409719007377022 0.005984885698824693
102767898 -0.004033009935246896 0.006000919212614065
102797660 -0.003999945978097222 0.005989566054015496
102827422 -0.003984779527244094 0.005955328251953032
102857184 -0.003982601119095509 0.005932365629927096
102886946 -0.003972810202179474 0.005897884125096205
102916708 -0.003959164193705148 0.005873292734524032
102946470 -0.0039516701613759204 0.005836296947573836
102976232 -0.003929673673672958 0.005815965911473186
103005994 -0.0039192947789082645 0.005788190990514987
103035756 -0.0038994747633761414 0.005759360616584089
103065518 -0.003896820770372295 0.0057457918641598245
103095280 -0.0039023939296109595 0.005775869138263834
103125042 -0.0039024828611082373 0.005802544531507133
103154804 -0.003898769888304168 0.005829558924538294
103184566 -0.003902821519966276 0.005849620041751363
103214328 -0.0039072787086155535 0.0058811198683399605
103244090 -0.003916575757530076 0.005910488537650072
103273852 -0.003913161148717678 0.005940787282541694
103303614 -0.0039159981796214995 0.00596378448847066
103333376 -0.003915957359373554 0.005989501885805387
103363138 -0.003830166424727726 0.00598747019098787
103392900 -0.003746360893881828 0.005982368377060207
103422662 -0.0036524511448984137 0.005976054853539607
103452424 -0.003569689334392805 0.005963306016063683
103482186 -0.0034798555554001968 0.005957554385707453
103511948 -0.0034032206456898087 0.005944376034558539
103541710 -0.0033180761160203167 0.005944688349565607
103571472 -0.0032389085702737917 0.005926865229837936
103601234 -0.0031571672764410474 0.005915896975583753
103630996 -0.0031638981692385026 0.005897848382464189
103660758 -0.0032170689373500027 0.0059007388469667615
103690520 -0.0032521769363685377 0.005895475703908689
103720282 -0.0033037595304374707 0.005885537567320102
103750044 -0.003349580949827516 0.0058740627945122635
103779806 -0.0033961198257306813 0.0058711504406384896
103809568 -0.003444340391675698 0.005857370799372373
103839330 -0.0034892415897930383 0.005850146080915159
103869092 -0.0035440370903207924 0.005836625473241595
103898854 -0.0035795355824094596 0.005828199770096882
103928616 -0.0036206748864561584 0.005855445658253934
103958378 -0.0036569017969089934 0.005877449742762448
103988140 -0.0036942345279711085 0.005898545762085806
104017902 -0.0037309570839906595 0.005924086004558612
104047664 -0.0037792226351357977 0.005936759414927644
104077426 -0.0038286195208543853 0.005962828075725395
104107188 -0.003870176203694766 0.0059881115819306364
104136950 -0.003912704425338954 0.006006298441882854
104166712 -0.003956913249968188 0.006030621658224466
104196474 -0.003947193746084274 0.006070406148295121
104226236 -0.003932820341066444 0.006117791530837401
104255998 -0.003920257199598566 0.006153702603661955
104285760 -0.003908955222218753 0.006202057917658564
104315522 -0.0038929756272207726 0.006245173888738031
104345284 -0.0038867515764180204 0.006291066520486346
104375046 -0.0038660470298008415 0.006331471734036719
104404808 -0.003853718380079287 0.006376154563387183
104434570 -0.003841443501911451 0.0064262752384137084
104464332 -0.0038313590561076644 0.006396775765528545
104494094 -0.003823009413546264 0.006348351543210456
104523856 -0.0038202506962219307 0.006284803933618829
104553618 -0.0038028406277608416 0.006227312895723268
104583380 -0.003795836948194862 0.006170705349229492
104613142 -0.0037904033318814077 0.006116590194003119
104642904 -0.003789149550589734 0.006065058729173931
104672666 -0.003772884820757245 0.00600456017072703
104702428 -0.0037686433641659876 0.005946337471294152
104732190 -0.0037542119690410192 0.0059387324158903096
104761952 -0.003733472063421917 0.006011038220100642
104791714 -0.0037092353667654288 0.00607887310696126
104821476 -0.0036875940838117134 0.006154885104893142
104851238 -0.0036736774044365777 0.00622919255607515
104881000 -0.0036536014242627736 0.00630224586123754
104910762 -0.0036238984256224058 0.0063734854607729085
104940524 -0.003602209760257023 0.006442246702294757
104970286 -0.003573623149849483 0.006522297166103951
105000048 -0.0035526439196759806 0.006599293645941089
