# HZ S RI R 50
90000000 -0.0003780215545397541 0.005299994103500755
90029762 -0.0003444413577345453 0.005333169085508168
90059524 -0.0005685780557290857 0.005347300656588296
90089286 -0.000431527907250025 0.005386294604977696
90119048 -0.0006041654364185088 0.005408537568631674
90148810 -0.0004698108609690992 0.005448323180204089
90178572 -0.0004934859904430517 0.00547529068950093
90208334 -0.00046410006374846934 0.005515922110425142
90238096 -0.0006896343335576113 0.005526597859726334
90267858 -0.0005578372403117224 0.005567463305173235
90297620 -0.000545568632554923 0.005543999793055582
90327382 -0.0004638030850269144 0.005501681328378789
90357144 -0.00048768319663343315 0.005449859165691394
90386906 -0.0004141076613819707 0.00540602101864126
90416668 -0.0005823701679849269 0.005351372769412766
90446430 -0.00041284814659543507 0.00531218472289163
90476192 -0.00033846872025876655 0.0052681044927394656
90505954 -0.00031216884458054025 0.005225970254240839
90535716 -0.0003359303438556238 0.005181285186550863
90565478 -0.0002555784713296623 0.005156032345678125
90595240 -0.00026249359433261457 0.00515933960552432
90625002 -0.00021912825785088186 0.005167504941608182
90654764 -0.00013641817722321177 0.005182406472656244
90684526 -9.430761173284062e-05 0.005182718167082524
90714288 -9.871318744523776e-05 0.0051943457014771415
90744050 -5.474811298293736e-05 0.00519697707443594
90773812 3.263003033922435e-05 0.00520277936248935
90803574 2.609997047457988e-05 0.005210323625903461
90833336 0.00011995729405894503 0.005217042631206253
90863098 0.00014452953763673338 0.005187206433559038
90892860 0.00013134822243734856 0.0051564249018749885
90922622 0.0001947349892925913 0.005131957995262088
90952384 0.0002213691048809919 0.00509930444798112
90982146 0.00020627923957970576 0.00507302067619074
91011908 0.0002728727118012286 0.005044250908974733
91041670 0.0002565556485764654 0.005014790482452204
91071432 0.0002832107219909163 0.004985396538798413
91101194 0.00018833313176926854 0.004955288070845016
91130956 0.0003457187315153892 0.004963050705362819
91160718 0.0002883116306040862 0.004993881257855548
91190480 0.0002682409737714719 0.005021552259450234
91220242 0.0001347984831779336 0.0050449802261281085
91250004 0.00023378891431117272 0.0050757859526656506
91279766 9.133875662376367e-05 0.005097656064757295
91309528 0.0002344627649419501 0.005128941948798185
91339290 0.000169767524395054 0.005150637585375302
91369052 0.00018835782127506897 0.005174827509959175
91398814 2.4553928824655355e-05 0.005172676326102412
91428576 0.0001533346763226343 0.005148287657242285
91458338 0.00019620871373670346 0.005126090975107743
91488100 0.000168598786337019 0.005092704358046258
91517862 0.0001761339538566231 0.005067511565372238
91547624 0.00022579934563047143 0.005035430743235741
91577386 0.00023386965234334866 0.005012528820775102
91607148 0.000207785206586327 0.004982970382685974
91636910 0.000216563619571446 0.004954500120859391
91666672 0.0002657269146096189 0.0049254298553274576
91696434 0.00030455696211521724 0.004921215738117452
91726196 0.000420285359199884 0.004920088130343111
91755958 0.0004966956539403508 0.0049144178943071656
91785720 0.0005449043599502792 0.004905142948186191
91815482 0.0006559202030704962 0.004896132961063821
91845244 0.000730902653957092 0.004880886031108661
91875006 0.0007790926961523586 0.004870304107052417
91904768 0.0007581240881852448 0.004854285375083238
91934530 0.0009353479385332765 0.004834298336395336
91964292 0.0009769575718414246 0.004834732918412201
91994054 0.0010196607939820736 0.004844587301890589
92023816 0.0009071506211675699 0.004854600642922271
92053578 0.0010190358841344783 0.004858612017428581
92083340 0.0010373275515530367 0.0048706239783947005
92113102 0.0010820114897439974 0.0048711152780458395
92142864 0.0010688228624974822 0.0048872274579985645
92172626 0.001113788587666641 0.0048942253219611265
92202388 0.0010063780305108096 0.004904187807578594
92232150 0.001102862992297546 0.004891990489117804
92261912 0.0009980137241555353 0.004828946894400261
92291674 0.0011135366027335363 0.004772223047263521
92321436 0.0010687149085077746 0.004715215433949258
92351198 0.0010904205727022018 0.004661506851545069
92380960 0.0010495660117524625 0.004607448559846101
92410722 0.0010417778736439662 0.004547300202495728
92440484 0.001059620092604204 0.004490371787518064
92470246 0.0010555380770727457 0.004437729177566637
92500008 0.0010186814228751245 0.004380075738316815
92529770 0.0010354407455143572 0.004387437805862907
92559532 0.0010766447880755218 0.004383461078476703
92589294 0.001069037375145701 0.0043886115801590264
92619056 0.0011080618366626866 0.004388492290646393
92648818 0.001131752107829322 0.004386777924123736
92678580 0.0011204543517303728 0.0043866496731624835
92708342 0.0011622721528260892 0.004387545084276456
92738104 0.0011757583648403895 0.004387213189588054
92767866 0.0011681441802355247 0.004385087184635235
92797628 0.0012291436192233766 0.004368814963470128
92827390 0.00125044574044145 0.004343775214089056
92857152 0.0012963961037540026 0.004320206204930362
92886914 0.0012749098430434233 0.004290458261620302
92916676 0.0014058871938517922 0.004267771196559147
92946438 0.001433153116250158 0.004240938424628104
92976200 0.0014791386546096506 0.004210805960539695
93005962 0.0014236065821784684 0.0042045366239926085
93035724 0.0015401864321166704 0.004166704688348061
93065486 0.001665587230171147 0.004020792219154704
93095248 0.0016940893036473793 0.0040683335099023325
93125010 0.0017442958259876566 0.004006955357472071
93154772 0.0018418589949244994 0.003941874182565718
93184534 0.0018352549357747527 0.0038879428223946516
93214296 0.0019670322969411592 0.0038050305476727726
93244058 0.001972102128945047 0.003750791306643009
93273820 0.002102913208217453 0.003664603263141063
93303582 0.002172482585881402 0.003585968281952283
93333344 0.002244896279779888 0.0034973645102342626
93363106 0.002226479042554571 0.003483852898668344
93392868 0.002190507968866282 0.00346719909501054
93422630 0.002175141723945155 0.003441269274764003
93452392 0.0021703918592750463 0.003414563302922014
93482154 0.0021307067606095844 0.003399652819227261
93511916 0.002131640354525222 0.0033650609870273674
93541678 0.002109536860791422 0.0033373008215957386
93571440 0.0020716245029379922 0.003308122961181065
93601202 0.0020692307321844784 0.003264486408634765
93630964 0.002094660369454828 0.0032006838911775486
93660726 0.0021275521347088214 0.00312901059725377
93690488 0.002193134059666883 0.0030448734952171104
93720250 0.002224270722788155 0.002976469973486692
93750012 0.0022722291112574166 0.0028772094138097234
93779774 0.002324209769835556 0.002793729493962893
93809536 0.00230855830150278 0.0027323838409851896
93839298 0.0023817220721717497 0.002615857524646058
93869060 0.002412629988285268 0.0025141271269158035
93898822 0.0024487355187823336 0.0024211571974076273
93928584 0.0024463884501888045 0.00233695471879858
93958346 0.002456651369469755 0.0022378792186567176
93988108 0.0024138446779193457 0.0021754538661603734
94017870 0.002444724547942189 0.002056034967460498
94047632 0.002417804213468774 0.0019821578816284985
94077394 0.0024442918279136134 0.0018600958045445766
94107156 0.0024284774780613566 0.0017602573749190902
94136918 0.0024269449457393058 0.0016614150417335976
94166680 0.0024155524711193263 0.0015652886546721316
94196442 0.002488419553077917 0.0015599749449858107
94226204 0.002580054754802726 0.0015831735803209983
94255966 0.0027090063452660696 0.00156154719001267
94285728 0.0028078541699690846 0.001541763531958706
94315490 0.002938581551037324 0.0015587499277479643
94345252 0.0030617243057215176 0.0015791590767690379
94375014 0.003207378567130513 0.0015766681230833786
94404776 0.003365997410233261 0.0016067932590118517
94434538 0.0035308192148229395 0.0016260910308903104
94464300 0.003417890557751249 0.00138324255981581
94494062 0.0031163101233977184 0.001014959361349623
94523824 0.002850980828625811 0.0007511229052654586
94553586 0.0026287289904713892 0.0004835303170043766
94583348 0.0023860702070691163 0.0002767849058365554
94613110 0.002198952838391306 9.640467151064777e-05
94642872 0.0019941422788300675 -7.012974622121398e-05
94672634 0.0018164944061460039 -0.0002274438747778178
94702396 0.0016550719652216458 -0.0003394804436987583
94732158 0.001503894691494855 -0.00044908884284179657
94761920 0.0014091752367487826 -0.0005549227653738467
94791682 0.0013118171262076824 -0.0006435161592224713
94821444 0.001207840253299792 -0.0007597624452314469
94851206 0.001096025562335708 -0.0008453440496168524
94880968 0.0009514012423740374 -0.0009523114490324889
94910730 0.0008583143954779556 -0.001023038193230723
94940492 0.0007232212971031624 -0.0010917946591574024
94970254 0.0006173366969383376 -0.001185329580169278
95000016 0.0004593505601929186 -0.0012410759146779511
95029778 0.0003722903799403897 -0.0013246888406997892
95059540 0.000217500471215728 -0.0014017391495505906
95089302 9.882729469978948e-05 -0.0014863201027155988
95119064 -4.3075881449533104e-05 -0.0015465194462386156
95148826 -0.00015197966099940422 -0.001628731449836533
95178588 -0.00029255311289111977 -0.0016867690994173106
95208350 -0.00046417913501583613 -0.001747507425267456
95238112 -0.0005846795664614693 -0.0017877358129323449
95267874 -0.0007418065503772134 -0.0018562035241009207
95297636 -0.0008904639835917047 -0.0018958350857083781
95327398 -0.0010583739521266614 -0.001920689001475148
95357160 -0.0012225671387949817 -0.0019411028800069366
95386922 -0.0013798559624041635 -0.001974232672783758
95416684 -0.0015480740928945894 -0.0019725594370386414
95446446 -0.0016983141026314186 -0.002001008672091511
95476208 -0.001855487103788899 -0.0019931566802157954
95505970 -0.0020241633268001163 -0.00197551182733978
95535732 -0.002175464898209732 -0.0019529850289929766
95565494 -0.0023502908369912377 -0.001942386050253192
95595256 -0.002499704716456488 -0.001876395368882611
95625018 -0.002679711145348938 -0.0018540137359492675
95654780 -0.0028200721087826906 -0.001803074478049009
95684542 -0.002992170067220827 -0.0017380094696498624
95714304 -0.003136986402628725 -0.0016611035137255818
95744066 -0.003288614484232511 -0.0016107332449975694
95773828 -0.003443752410992036 -0.0015400400228240312
95803590 -0.0035795658364956087 -0.001466954744613821
95833352 -0.0037105743727698275 -0.0013691189063556118
95863114 -0.003829352623784268 -0.0013554183641592862
95892876 -0.003871815061406865 -0.0010949785310238778
95922638 -0.0040055741938622704 -0.001167140694748099
95952400 -0.004046974242228751 -0.0009003518164771837
95982162 -0.004172774983081325 -0.0009671184500586295
96011924 -0.0043626949935037075 -0.0019171832410831962
96041686 -0.00431536355144772 -0.0006642172278482177
96071448 -0.004383968642116029 -0.0005580544687566333
96101210 -0.004441128030542965 -0.00047055302594755337
96130972 -0.004691088070595337 -0.0014436518081948535
96160734 -0.004582042858609993 -0.00028885944359725337
96190496 -0.004678351185698457 -0.00020123698409521968
96220258 -0.004762843902612796 -0.00010913811949884715
96250020 -0.0048164771572149715 -2.969433281883706e-05
96279782 -0.004890901494274271 8.070439486230288e-05
96309544 -0.004965468587764814 0.00014858211722456802
96339306 -0.005101873902859027 0.00015505489575096592
96369068 -0.0052285798037837745 0.00016992629759994492
96398830 -0.005154423511874656 0.00043718548758483474
96428592 -0.005220964104723546 0.0005520773402881081
96458354 -0.005284089364845249 0.0006584199934276235
96488116 -0.004763986832532108 0.0015919675126252436
96517878 -0.005375749046865203 0.0008941966562127559
96547640 -0.0054275611629220405 0.0009746130297448196
96577402 -0.005462935202140801 0.001112012253602444
96607164 -0.005503684723084094 0.0012364785530959103
96636926 -0.004880303537892365 0.002110480787614927
96666688 -0.005576946183436341 0.0014335377069514066
96696450 -0.005557406889966754 0.0014991636126255614
96726212 -0.005551909264985691 0.0015528319786026715
96755974 -0.0062105925367523206 0.0006913463417217076
96785736 -0.005488799730258521 0.001666243879923764
96815498 -0.006170351096662436 0.0008473349548084074
96845260 -0.005444385810933194 0.0017550607048866546
96875022 -0.005402801435517002 0.0017897562718456595
96904784 -0.005389095592164753 0.0018189275439216114
96934546 -0.005297911786623673 0.001921621851343958
96964308 -0.005357629552352164 0.0019254381647829868
96994070 -0.0053566183672718376 0.0019504780608185805
97023832 -0.0046843013502318115 0.002581882190304904
97053594 -0.0053902838480639 0.0020175006944634878
97083356 -0.00543753677189064 0.002019876789977079
97113118 -0.006169813969024122 0.0013253219170423888
97142880 -0.005447677639868851 0.0020805462219690768
97172642 -0.004755607701046958 0.002684681954843106
97202404 -0.00547994575609223 0.0021049281346426463
97232166 -0.005471569450643582 0.0021538964653832673
97261928 -0.005493468552944058 0.002228833765859942
97291690 -0.005466268095002559 0.002307500850783516
97321452 -0.005463566277234404 0.002376256696815472
97351214 -0.005470172197921051 0.0024253296620394818
97380976 -0.005472129165464047 0.002503258067255805
97410738 -0.005433119975691335 0.0025865809807639703
97440500 -0.005432037052098834 0.0026531837547346705
97470262 -0.004675343677312342 0.0032337608502250362
97500024 -0.0054096760989565335 0.002791030249388492
97529786 -0.005431597334609349 0.002845661379181921
97559548 -0.004664593515499561 0.003403000459978132
97589310 -0.005427373218771893 0.0029906266107664107
97619072 -0.005335530400414588 0.00312063262559922
97648834 -0.00544515030818981 0.003117060772141666
97678596 -0.005420249278967284 0.0031865163290968907
97708358 -0.00465295645986054 0.0036916667966387603
97738120 -0.005420719033847763 0.0033145982570340414
97767882 -0.0054247214177832815 0.0033794427326106985
97797644 -0.006188299768397151 0.0029553455761683694
97827406 -0.005316173686941455 0.0034904767174710957
97857168 -0.005189965266645417 0.0035834246850392987
97886930 -0.005114376032700913 0.0036397055546675524
97916692 -0.005792291663008419 0.003295639673816147
97946454 -0.00495133360621712 0.0037699934733343697
97976216 -0.0056035763225454555 0.003435312819690329
98005978 -0.004084325520238223 0.0041660436013899824
98035740 -0.004704666481642397 0.0039107200800363754
98065502 -0.004717654663013864 0.00393979597830539
98095264 -0.004780765772713748 0.003947319037259655
98125026 -0.004812114445111828 0.003993371134290392
98154788 -0.0041717933763863405 0.004309192906049098
98184550 -0.004970653768094697 0.0040179669149404355
98214312 -0.005045740052288111 0.0040324927828977505
98244074 -0.0043717317597615785 0.004366028224354751
98273836 -0.0052386318913667735 0.004051409478945328
98303598 -0.005276035935019283 0.004071267984777397
98333360 -0.005365200911679558 0.004091210043211144
98363122 -0.005379805929179891 0.004052332327208995
98392884 -0.005313840873078995 0.004066658603367246
98422646 -0.005346279994834124 0.004044233725286511
98452408 -0.005315263989398843 0.004028026606984743
98482170 -0.0052458946295603935 0.0040378314670713
98511932 -0.005275039415128113 0.004017981089604769
98541694 -0.004449975550431362 0.004328495734232201
98571456 -0.005181237230266873 0.00400964554137622
98601218 -0.005924411773227816 0.0036498018296752485
98630980 -0.005124884847370769 0.00402826724972322
98660742 -0.005074930117084156 0.004098783579794351
98690504 -0.004290473071528558 0.004431243298042727
98720266 -0.005730053262164998 0.003880994270674942
98750028 -0.00493900146638734 0.0042546032973116875
98779790 -0.0048852145818677525 0.004307417570366649
98809552 -0.004881856725144496 0.00435067125212541
98839314 -0.0047810898426999164 0.004407508476446509
98869076 -0.004778862094042326 0.004440895963892574
98898838 -0.005436053376566728 0.004239215597826932
98928600 -0.004708020772118339 0.004525730677891353
98958362 -0.005461037935663608 0.004293119063877958
98988124 -0.004792198779243298 0.00455607604424283
99017886 -0.004757015657723305 0.0046051623988527185
99047648 -0.0048073138958727125 0.004596930260001861
99077410 -0.004780636216168479 0.004637138914626342
99107172 -0.00478469706715497 0.004656423979265508
99136934 -0.004859312595735719 0.00465378027094166
99166696 -0.004865040100938486 0.004682364122161061
99196458 -0.004809536187996772 0.004691406104788098
99226220 -0.004816133516360732 0.004668897477406042
99255982 -0.004868133475524471 0.004627417990864173
99285744 -0.004809043263749242 0.004640781734680971
99315506 -0.004871911144449982 0.0046003914751833325
99345268 -0.004863896540471928 0.004591140626421136
99375030 -0.004805122636583859 0.004583439542168158
99404792 -0.004863884914896437 0.004544471934636889
99434554 -0.004864750002232033 0.004533262890662052
99464316 -0.004752808549147473 0.004579248504814096
99494078 -0.004719332157327229 0.0046411498007840534
99523840 -0.004591170163077226 0.004721538359052205
99553602 -0.004509923639304084 0.004779237342849272
99583364 -0.005080642717013403 0.004647178021414054
99613126 -0.0036557941874733467 0.0050771748433538315
99642888 -0.004254888290057309 0.004955347417925069
99672650 -0.004168124100195293 0.005018108352777692
99702412 -0.0047113890401387915 0.004903661598444418
99732174 -0.0040433382640816294 0.005090923868619121
99761936 -0.003921043383220725 0.005113265456778277
99791698 -0.004183741017619915 0.005028596723918275
99821460 -0.00416433341744748 0.005025310946257547
99851222 -0.0042639300303615605 0.004978172689791076
99880984 -0.004877730952245612 0.004787536685464617
99910746 -0.004020066203463312 0.004895423799128673
99940508 -0.004955212047585307 0.004731289181559139
99970270 -0.00436365172605502 0.004875804018017546
100000032 -0.004408144726965179 0.004851699591475058
100029794 -0.004379896578056997 0.0048482168807351435
100059556 -0.004353493258029667 0.004866624224151556
100089318 -0.004340296893996215 0.004879258915102362
100119080 -0.004321983938476948 0.00489579271732863
100148842 -0.004304668173453733 0.004902952370190012
100178604 -0.004284480820478568 0.004931427759090093
100208366 -0.0042592870752653665 0.004942002959892703
100238128 -0.004250549537104868 0.004953700025071731
100267890 -0.004234095146164149 0.004959733133500531
100297652 -0.0042276198616724115 0.0049731463323102855
100327414 -0.004234030666806587 0.004984646127270999
100357176 -0.004232037811767248 0.004985103950385746
100386938 -0.004239604006934612 0.004989932141467561
100416700 -0.004234289530210253 0.005005544391116798
100446462 -0.004245092923564133 0.0049965993211339805
100476224 -0.00423800094032537 0.005007915063107297
100505986 -0.004244708256564351 0.005020256841513821
100535748 -0.00424653518829002 0.005022079263099199
100565510 -0.004257417469876619 0.0050350560917870055
100595272 -0.00430992991809541 0.005078773152993095
100625034 -0.004344284723238223 0.005115948616558408
100654796 -0.004396449973806157 0.005163421982945812
100684558 -0.004455687019695712 0.005200588501895572
100714320 -0.00449920522503936 0.00523503306747249
100744082 -0.00455342739880687 0.005272305131898588
100773844 -0.004598222819596645 0.005316654276774049
100803606 -0.004669531615574053 0.005359859736595982
100833368 -0.004712106878480779 0.005401369720845218
100863130 -0.004675523309716146 0.005383986081158759
100892892 -0.004604990986790516 0.005381134284214422
100922654 -0.004559934374258534 0.0053814709995790395
100952416 -0.004504996565149758 0.005370076565547161
100982178 -0.0044490947154572896 0.00536023116421229
101011940 -0.0044030566085616835 0.005356197412932937
101041702 -0.004350469638502058 0.005344770320651877
101071464 -0.004292432841824325 0.005338753287563663
101101226 -0.0042573629797163035 0.005329902880434817
101130988 -0.0042324662929361405 0.0053283337339163385
101160750 -0.004240904822079122 0.005309089595759019
101190512 -0.004238899339366787 0.005323148408796914
101220274 -0.004245996509121941 0.005315754117454182
101250036 -0.0042423665472246415 0.00530782221017989
101279798 -0.004250476705373924 0.005300614814644761
101309560 -0.004252838269772513 0.005298043195235212
101339322 -0.004254441033502716 0.005295666515693239
101369084 -0.004260340297883807 0.0052843794942677436
101398846 -0.004237166817202633 0.005304977164571591
101428608 -0.0041783342468223504 0.005372305090960027
101458370 -0.004124605054591836 0.00542514437397908
101488132 -0.00406017335199442 0.0054924055490895435
101517894 -0.003999597793076814 0.0055583593325352135
101547656 -0.003941454306022226 0.005606703863968639
101577418 -0.0038735558504483436 0.005665877400300419
101607180 -0.003811306528152298 0.005718711978234723
101636942 -0.0037345145545601473 0.0057793204654545995
101666704 -0.003669217100327484 0.005831644641882968
101696466 -0.003760548188992139 0.00578889333376443
101726228 -0.003854328854240801 0.005729957128806878
101755990 -0.003944972236705186 0.005672879835524613
101785752 -0.004034910525683556 0.005613511369616966
101815514 -0.004129938280149944 0.005562062911586187
101845276 -0.0042118114120309365 0.005491242395995616
101875038 -0.004287556685408534 0.005422388695883753
101904800 -0.004367343063931365 0.0053568229883326724
101934562 -0.0044441102256356 0.0052810299586933005
101964324 -0.004411570971051296 0.005288321927204782
101994086 -0.004332008905317684 0.005341780884107683
102023848 -0.004254843716662619 0.00538808047603963
102053610 -0.004163850212380043 0.005425461214370934
102083372 -0.004075579424852182 0.005478816092191956
102113134 -0.003990995723762602 0.005517222813139313
102142896 -0.0038264076010578255 0.005546653652717304
102172658 -0.003735794599870621 0.005581750518374881
102202420 -0.0036539699474243486 0.005615454405127601
102232182 -0.003614953368054741 0.0056450554629621594
102261944 -0.003703901254041951 0.005671304021753792
102291706 -0.0037920812467009874 0.0056965128695361305
102321468 -0.003972394502796328 0.005726910341376153
102351230 -0.00405855087977474 0.005752967532844408
102380992 -0.004153501316602733 0.005766867115784932
102410754 -0.004257959984036977 0.005787770804073705
102440516 -0.004357318882618606 0.005811459395336119
102470278 -0.004462957070974602 0.005820390354617482
102500040 -0.004553938754129141 0.005825523120739946
102529802 -0.004506777338044973 0.005854182124432378
102559564 -0.00445866702674739 0.005869149966470259
102589326 -0.004397780702010369 0.005883082458619118
102619088 -0.004345290404446927 0.00589412878123477
102648850 -0.004289855745446909 0.005912699272255746
102678612 -0.004230040449472381 0.005931848203939958
102708374 -0.004173175603332259 0.005947332060525632
102738136 -0.004118159729759719 0.005957106421596828
102767898 -0.004071868192787221 0.00597541671984884
102797660 -0.004038036149031689 0.005949103093119802
102827422 -0.004026101676970124 0.0059215466034806576
102857184 -0.004014803785065807 0.005898173729789575
102886946 -0.0040116895468095565 0.005870922082054226
102916708 -0.003982887601492936 0.005841776686903043
102946470 -0.003986495642850914 0.005813007765259867
102976232 -0.003971250286320794 0.005787558974419882
103005994 -0.0039556443713137865 0.005750546510209821
103035756 -0.003940886868912972 0.005725486628157575
103065518 -0.003937149081602659 0.005724042485174838
103095280 -0.003940118175911957 0.005745522939616252
103125042 -0.003939755192839848 0.005769750697383333
103154804 -0.0039396603304906385 0.005796517094302444
103184566 -0.00394308347629691 0.00581954298618469
103214328 -0.0039516807541498 0.005850911211301028
103244090 -0.003953016313961048 0.005882726689440732
103273852 -0.003957142103263277 0.005906003732571997
103303614 -0.003958845942839677 0.0059261677139162364
103333376 -0.003965306167530016 0.00595935091741786
103363138 -0.0038732833613859333 0.0059567058739846065
103392900 -0.003787050875170569 0.0059533979036036164
103422662 -0.003698184554617778 0.0059520351618864206
103452424 -0.003616852856282184 0.005944146430806859
103482186 -0.0035258085127652496 0.005930811219578064
103511948 -0.003446478777856259 0.005926996125001673
103541710 -0.0033674204981190207 0.005910251537009548
103571472 -0.0032819635521501964 0.005901740770618007
103601234 -0.0032045784581700466 0.005893402876706362
103630996 -0.003210866800058434 0.005882602578626653
103660758 -0.0032618213488539278 0.005877588356151854
103690520 -0.003309607142852621 0.005874904023312346
103720282 -0.0033462696944657148 0.005860931982430874
103750044 -0.003396310925003271 0.005853808831284807
103779806 -0.0034445819623841953 0.005844280681726245
103809568 -0.0034898885081528323 0.005836466500005331
103839330 -0.0035410785244199675 0.005824506479901319
103869092 -0.0035852189746667113 0.005810921957512959
103898854 -0.0036247085050641063 0.0058106806941925606
103928616 -0.0036731484025339578 0.005831482002372089
103958378 -0.0037104618274886704 0.005852491601195326
103988140 -0.003756073242403584 0.005874914666192361
104017902 -0.0037956903863175565 0.00589883492733504
104047664 -0.003835695420662948 0.00592384009152146
104077426 -0.0038684808256082143 0.005941439441882059
104107188 -0.0039140007996572735 0.005966620520485152
104136950 -0.003960229097019942 0.005985742392549938
104166712 -0.003998623308824958 0.00600622656293948
104196474 -0.003983878652063212 0.00604898385619293
104226236 -0.003959350766388082 0.00609747832081088
104255998 -0.003950223950136822 0.006148050726817647
104285760 -0.0039277734361275645 0.006190915502490513
104315522 -0.003915167288394425 0.006242708760241744
104345284 -0.0038931122009478298 0.006292810501642365
104375046 -0.0038815945292397 0.006328032510053342
104404808 -0.003863786933998985 0.006387584394983395
104434570 -0.0038438317212576107 0.006423390481493259
104464332 -0.0038374916080165695 0.006404607086544323
104494094 -0.0038340215685584026 0.006351599081643055
104523856 -0.0038212289097654104 0.006284610166016101
104553618 -0.003804259704633338 0.006233191280622192
104583380 -0.0038030685766751444 0.006175890408567966
104613142 -0.0037931595767249633 0.00611379303088247
104642904 -0.003779200292629644 0.0060644576987923
104672666 -0.003770933394432949 0.0060149606832689785
104702428 -0.0037627657728442664 0.005950176974650072
104732190 -0.0037483274122040965 0.005942766615789012
104761952 -0.003736786158496996 0.0060075633965668476
104791714 -0.0037040272664701284 0.006080188156264325
104821476 -0.0036944167616059257 0.006144759534678305
104851238 -0.003673806596891576 0.0062200565385780015
104881000 -0.0036495906505903623 0.006294449886893173
104910762 -0.003627888013245752 0.00637073661496613
104940524 -0.003598387265625137 0.006437511510956042
104970286 -0.0035768614073194266 0.006519552883926555
105000048 -0.0035551380097560556 0.006591243807242258
