# HZ S RI R 50
90000000 -0.00023314540839852429 0.005214936034720721
90029762 -0.0001959918801446625 0.005241941715956294
90059524 -0.00041326599603081084 0.005255060989835106
90089286 -0.0002805875535272538 0.005297127782743539
90119048 -0.00044541298828975104 0.005313853493721115
90148810 -0.00031152780099212167 0.005353442597105192
90178572 -0.0003294678201135997 0.005380473679106366
90208334 -0.0002983664753473025 0.005400729519141539
90238096 -0.0005199172326521506 0.005422554213629151
90267858 -0.0003855669669616453 0.0054623084136407865
90297620 -0.0003698852010274281 0.005441125951230036
90327382 -0.0002941980002435072 0.005391699259414215
90357144 -0.0003176226222243516 0.005322791456747124
90386906 -0.0002437136194533284 0.0052972573389464634
90416668 -0.0004087211992617109 0.0052351327561936355
90446430 -0.00023609800612695646 0.005198535577452635
90476192 -0.000454569380859392 0.005168431604208349
90505954 -0.00013735199461715878 0.005107665544932502
90535716 -0.00015734533287441142 0.005057314697381739
90565478 -8.321235201319842e-05 0.0050311256557274385
90595240 -8.42036204384864e-05 0.005036375570546893
90625002 -4.4936933615663204e-05 0.005045167826943548
90654764 4.27044472705633e-05 0.005048685704842157
90684526 8.645031500206294e-05 0.005054116022765973
90714288 8.456447862210104e-05 0.005058935876808814
90744050 0.00013125514106976719 0.005059504004534911
90773812 0.00021498446325413556 0.005063463859540247
90803574 0.0002156464904308465 0.0050629870573632605
90833336 0.00030234298775904295 0.005060453326934521
90863098 0.000330449663558767 0.005033423726430987
90892860 0.00031531478029392016 0.005000492220771361
90922622 0.000385323161234477 0.004968701942599405
90952384 0.0004109826651121721 0.0049377283405899215
90982146 0.0003964286723186513 0.004908653071828609
91011908 0.0004608406155556921 0.004877656810294577
91041670 0.00044823749429289235 0.004847246869996778
91071432 0.0004768868878390928 0.004812305229657296
91101194 0.0003833118902991064 0.00477555211886949
91130956 0.0005383289881311244 0.00478780801173923
91160718 0.0004890761504843181 0.004818408593689497
91190480 0.0004763293264724407 0.004837159070765686
91220242 0.0003457735540298271 0.0048546065744272116
91250004 0.00044477781210585987 0.004879645378012311
91279766 0.0003167808893006342 0.0048997398554866305
91309528 0.00045390161035693724 0.004926164372849762
91339290 0.0004018044791097951 0.0049467802979010185
91369052 0.00042359003408173754 0.004967676666170157
91398814 0.00026261605902059345 0.004960796361167995
91428576 0.0003841670787026011 0.0049391219690513395
91458338 0.00044245922391287124 0.0049012529823843215
91488100 0.0004130936026086649 0.0048738642684320885
91517862 0.00042528092013502015 0.004844841204184818
91547624 0.0004704672255591017 0.004813507539762906
91577386 0.0004832055708789753 0.004775620020302795
91607148 0.0004580373403448307 0.004747811534190405
91636910 0.00047132677970880766 0.004712830579713916
91666672 0.0005157419209791883 0.004682882500809801
91696434 0.0005608008008435176 0.004668432157883669
91726196 0.0006784330355996123 0.0046454809611764045
91755958 0.0007513677705523486 0.004644203868257484
91785720 0.0007967183726629791 0.004623969623523846
91815482 0.0009065183938746241 0.0046108379644068925
91845244 0.000980996801583907 0.004587100808505709
91875006 0.001027881400656242 0.0045620038063939215
91904768 0.0010152951033670777 0.00453941952794603
91934530 0.0011849688789182056 0.004511403267438793
91964292 0.0012230554696169343 0.004503789115200213
91994054 0.0012758788529172347 0.004496619179064022
92023816 0.0011650190724082719 0.004506583603970304
92053578 0.0012804738200523304 0.004506001275150518
92083340 0.001302873342633911 0.004491473494862708
92113102 0.00134858969949733 0.004497424064849795
92142864 0.0013404473728190764 0.00449672554489946
92172626 0.0013913165263229907 0.004494390657982412
92202388 0.0012863826337915633 0.004497635865291545
92232150 0.00138693011462647 0.004470305223141083
92261912 0.00128404080290801 0.004413414072292223
92291674 0.0013929111552529155 0.004350472169192611
92321436 0.001354194537632668 0.004285392598876922
92351198 0.001366939842159191 0.004219992105779298
92380960 0.0013294237148926654 0.004164240149019069
92410722 0.0013244373996055046 0.004104351294086622
92440484 0.0013484825132746606 0.004047851262500288
92470246 0.0013320557877729135 0.003977638901788738
92500008 0.0012991045595982158 0.00392565180412269
92529770 0.0013205225823865355 0.003909864040430426
92559532 0.0013641214381012133 0.003902188808537304
92589294 0.0013647721279694742 0.003888408038417663
92619056 0.001405313511292318 0.003877680514224872
92648818 0.0014293963405486699 0.0038612107930580232
92678580 0.0014143956840114128 0.00385038726886082
92708342 0.0014668702489405228 0.003824849492903426
92738104 0.0014873903365496184 0.0038153627618986033
92767866 0.001481505623952016 0.003799804185338834
92797628 0.001551359084559737 0.00374942722099728
92827390 0.0015615547473388032 0.0037264441345910425
92857152 0.0015993912065037762 0.0036831755662049058
92886914 0.001575937831392452 0.0036436793057086575
92916676 0.0017094683776586227 0.0035903111751453094
92946438 0.001725056703485384 0.003546409864284367
92976200 0.0017351023274555601 0.0035063227658200997
93005962 0.0017641771866213367 0.003443523353935876
93035724 0.001861157063486772 0.003385162403005261
93065486 0.001847330135761185 0.0033266873121447762
93095248 0.0019930316053476207 0.0032345518856726776
93125010 0.0020275544555486843 0.003148257371300272
93154772 0.002110788860498337 0.003052460645533267
93184534 0.0020932547304893094 0.0029824251682232547
93214296 0.0021884054795875373 0.002876321060556715
93244058 0.0021952296999661167 0.0027953732904857018
93273820 0.0022827108815981086 0.0026822396564113084
93303582 0.002322452635070707 0.002582262629021579
93333344 0.00237287263861974 0.0024656607863163867
93363106 0.0023550387273589715 0.0024247020213554495
93392868 0.002325916009489367 0.002390273348913641
93422630 0.0022987538990478767 0.0023380665719762305
93452392 0.00228862333228288 0.002280415609658683
93482154 0.002258917889815605 0.0022471870151498383
93511916 0.0022387545763090625 0.002182650936837833
93541678 0.0022070470892127975 0.002119393934059042
93571440 0.002177695149870439 0.0020646189480579952
93601202 0.002159919349026322 0.0020049975959081086
93630964 0.0021654264616889065 0.0019091797760545158
93660726 0.0021616111984355886 0.0018085030659104006
93690488 0.002179002702971822 0.0016852765434591482
93720250 0.0021790042887622494 0.0015833430030305112
93750012 0.002188578600367342 0.001470807452528631
93779774 0.0021775277263245004 0.0013495773573856274
93809536 0.002150014630207712 0.0012572175407103354
93839298 0.002152967782625 0.0011137056414889756
93869060 0.002136022443972511 0.0009988523652086695
93898822 0.0021045085395416073 0.000865785924089272
93928584 0.0020489220204673296 0.00077556476101884
93958346 0.002014984044364218 0.0006557906325022563
93988108 0.001964185939797718 0.0005740316874479787
94017870 0.0019068107968475665 0.00045635270683403736
94047632 0.0018694175637752742 0.00034971201534747667
94077394 0.0017999839327990804 0.00022725452446932282
94107156 0.0017276892257481647 0.00011057516775120731
94136918 0.0016521870980206138 -7.903731956306425e-06
94166680 0.0015720429897772559 -9.173737915454934e-05
94196442 0.0015711853198388805 -0.00017915137639312766
94226204 0.0015793115079179884 -0.0002963591857671345
94255966 0.0015605137837417947 -0.0004213215190449113
94285728 0.0015590307346634376 -0.0005439098911446147
94315490 0.001554780845116711 -0.0007248984274598666
94345252 0.0015104933246272545 -0.0008628516046508136
94375014 0.0014994439025544845 -0.001058243938139635
94404776 0.0014950386359613526 -0.001235065238351005
94434538 0.0014618474993982969 -0.0014858042689046944
94464300 0.0012572814926431228 -0.0016321215764980997
94494062 0.0009693088515835061 -0.0016707007740321838
94523824 0.0006649426607798259 -0.0016887320834997025
94553586 0.0004577324382051805 -0.0017467109786280025
94583348 0.00022495811391942246 -0.0017203110644849746
94613110 5.455606606415585e-05 -0.0017399321592093603
94642872 -0.00013032228219875188 -0.001711646175433143
94672634 -0.0003057846512952687 -0.001676406791947964
94702396 -0.00043954834054328585 -0.0016795367175316694
94732158 -0.0005918542324522614 -0.0016590093162247616
94761920 -0.000742634246038954 -0.0016763500778334496
94791682 -0.0008606496578776768 -0.0017302667462603743
94821444 -0.0010193231228807905 -0.0016986670540444695
94851206 -0.0011397565159606544 -0.0017470575106666069
94880968 -0.001306766389364378 -0.001698535577702653
94910730 -0.001431353069425404 -0.0017066057360774758
94940492 -0.0015892157535262227 -0.0016848714893144625
94970254 -0.0016929809939357603 -0.0016976073271192979
95000016 -0.0018785598319682616 -0.0016220921734171438
95029778 -0.0020010392013566367 -0.0016557751216097051
95059540 -0.002160565693482407 -0.0016126718690994287
95089302 -0.002333079098128317 -0.0016239676035292789
95119064 -0.002487386284109696 -0.0015814219951819166
95148826 -0.0026197252262995085 -0.0016314319404468073
95178588 -0.0027640837855600637 -0.0015649235735561583
95208350 -0.0029125601210202505 -0.0015579508875997428
95238112 -0.0030464403497533136 -0.0015148393041046575
95267874 -0.003192445502112294 -0.0015007274718711631
95297636 -0.0033146479769679445 -0.0014220335747505816
95327398 -0.0034591398728881224 -0.0013793515688638887
95357160 -0.003583973275845716 -0.001337108064118667
95386922 -0.003700964243352469 -0.0012505491256779408
95416684 -0.00381450444318972 -0.0011869623485872163
95446446 -0.003953882960948721 -0.0011044170794062493
95476208 -0.004048469061485262 -0.001055898896507884
95505970 -0.004159127749875931 -0.0009691868699406275
95535732 -0.004257204632005685 -0.0008917899871226422
95565494 -0.004374382265729954 -0.0007925718834407208
95595256 -0.004453829607723984 -0.0006870708909780295
95625018 -0.004553903061020548 -0.000597302400475968
95654780 -0.004636747601704162 -0.0004886645593752565
95684542 -0.004732701080494132 -0.000354258364221837
95714304 -0.004821593742644544 -0.00027012990493565763
95744066 -0.004893331651935534 -0.00015001173475402848
95773828 -0.004961931145282669 -4.5607411957719055e-05
95803590 -0.005023821345560357 9.404116149841537e-05
95833352 -0.005074262676201597 0.00018915275109841973
95863114 -0.005101330299306236 0.0003063751789840207
95892876 -0.0050972138460714115 0.0004019138515608753
95922638 -0.0051225521574817705 0.0004907198836499225
95952400 -0.005121642580990901 0.0005977241097213377
95982162 -0.0051263077674861945 0.0007070897356669106
96011924 -0.00555243828760023 -0.00028284696899098127
96041686 -0.005070109162882719 0.0008200391468642477
96071448 -0.005097646870370279 0.0009121207656496108
96101210 -0.005058130671624468 0.0009764288535946522
96130972 -0.0056588091713158815 0.0001190740614354932
96160734 -0.005117446683902096 0.0011449579549979128
96190496 -0.005167536325896955 0.0012227239090132178
96220258 -0.005205034897327478 0.0012875164063722343
96250020 -0.005233250246398928 0.001377174350656808
96279782 -0.005277719053190215 0.0014486018874295106
96309544 -0.005299442727658228 0.001528383267393527
96339306 -0.00533015158786431 0.0015909129705158212
96369068 -0.00536683093305886 0.001657012149675891
96398830 -0.005409348512783927 0.0017714716407987118
96428592 -0.00542596599495422 0.0018524763426405592
96458354 -0.0054414643730335156 0.0019337725679115015
96488116 -0.004732218205345595 0.0026650972656432556
96517878 -0.005457380046307526 0.0021276121868240095
96547640 -0.005478765168616208 0.002213250852695559
96577402 -0.005504795945327229 0.002307298117436596
96607164 -0.0055306315278366375 0.002409777870891376
96636926 -0.004761279578959022 0.0030801250254242547
96666688 -0.005550830873253695 0.002595606379457546
96696450 -0.005501268778328062 0.0026118250397159466
96726212 -0.005488468810304922 0.002629165031651411
96755974 -0.006285453411532816 0.0019393330908059087
96785736 -0.005400647100120673 0.0026841843868235307
96815498 -0.006187978174527082 0.002029345832315217
96845260 -0.005326697680032404 0.0027184044902381
96875022 -0.005286688570773455 0.002746549913392025
96904784 -0.005257663307330346 0.0027350949573438322
96934546 -0.005176205713516392 0.0027808704126935087
96964308 -0.00520152525529138 0.0027907322859551335
96994070 -0.005221380859694091 0.0027880574475219176
97023832 -0.004495223335002957 0.0032710395953906984
97053594 -0.005251322586979999 0.0028047379868143207
97083356 -0.005287087143098078 0.0028062725121800916
97113118 -0.006072328572773424 0.002241711146061658
97142880 -0.005293351024319083 0.0028366326873268525
97172642 -0.004566472577440071 0.0032940550757740487
97202404 -0.0053316675592483525 0.0028217993617478307
97232166 -0.005314455666983138 0.0028764411654031144
97261928 -0.005321141061351282 0.002919277898589694
97291690 -0.005305873677801528 0.0029909579336720796
97321452 -0.005290235528843858 0.0030451769787141867
97351214 -0.0052894964376875445 0.003090893736448685
97380976 -0.005277066768797705 0.003148792697226489
97410738 -0.005243736507175316 0.003221362391361719
97440500 -0.005234178740499034 0.0032748292146366157
97470262 -0.004470282842738135 0.003713956956712806
97500024 -0.005202611866743247 0.0033841044769373106
97529786 -0.005223779363638162 0.0034194021216649062
97559548 -0.0044465144552122 0.003865226132639801
97589310 -0.005221118919290854 0.0035510196114083943
97619072 -0.0051211583731716 0.003639373783860617
97648834 -0.00523247506412758 0.0036443176935593595
97678596 -0.005197480478845491 0.0037248915399589705
97708358 -0.004423663568761464 0.004115896258908857
97738120 -0.00519049183436129 0.0038167220790895247
97767882 -0.005206834167351818 0.003868243115614302
97797644 -0.005962611396084409 0.0035421817991087624
97827406 -0.005080597633244721 0.003961299398037857
97857168 -0.004980661432180057 0.004030157622128468
97886930 -0.004909171155667587 0.004074505571776631
97916692 -0.005586573214840852 0.0037941528795226677
97946454 -0.004727022523093929 0.004159940826099744
97976216 -0.005402013825047308 0.0038776447904761524
98005978 -0.0038896937190082428 0.004486628734298729
98035740 -0.004511935145065199 0.004260894612582403
98065502 -0.004532395384019962 0.00428450373470594
98095264 -0.004586878896908813 0.004306326496849974
98125026 -0.004625600709622299 0.004341052764908627
98154788 -0.0039855171938745 0.004615608701434277
98184550 -0.004777232967209363 0.004374646903029065
98214312 -0.004847391002945006 0.004396888901031497
98244074 -0.004177526552282614 0.004672946391130664
98273836 -0.005040653265190022 0.004416353663856076
98303598 -0.005088858816349454 0.004436154368127658
98333360 -0.005160265682621589 0.00445132861813595
98363122 -0.0051838884823297675 0.004418924290436661
98392884 -0.00512685856950026 0.004418566926742987
98422646 -0.005139787506186736 0.00437949212322714
98452408 -0.00513178144986678 0.004371222508490877
98482170 -0.005065428125389934 0.004372243752540448
98511932 -0.005104416330776368 0.004343122182685324
98541694 -0.004295397226934431 0.0045992320292736946
98571456 -0.005009383649041776 0.004327267095078343
98601218 -0.005731215894324552 0.00401230225826945
98630980 -0.004963580252696805 0.00434211833862015
98660742 -0.0049095883882761555 0.004396949298280141
98690504 -0.004126185043018341 0.004690210097824765
98720266 -0.005553205194886678 0.004238662555176515
98750028 -0.004767901845411933 0.004537075881385938
98779790 -0.004719397673156315 0.004600638884747623
98809552 -0.004711768660752381 0.0046237406087915
98839314 -0.00461152552611082 0.004697164404208616
98869076 -0.004607011929429051 0.004714566547524152
98898838 -0.005253807753865253 0.004566953723492819
98928600 -0.004543915786092137 0.004781139027577292
98958362 -0.005284249508153318 0.00460412219301848
98988124 -0.0046219272120252035 0.004813876175291681
99017886 -0.004581542137056271 0.0048446600767268425
99047648 -0.004655541550152109 0.004845999714508958
99077410 -0.0046029309144467526 0.004895755871325675
99107172 -0.00460994535153451 0.004921060016002044
99136934 -0.004702141611020163 0.0049096858246581564
99166696 -0.004724416275943937 0.004935187476295337
99196458 -0.004665826694200675 0.00492719703803722
99226220 -0.004661417605136072 0.004916520387428386
99255982 -0.004718119373890725 0.004887104079153133
99285744 -0.0046693745717512804 0.004870203439788026
99315506 -0.004715005353787649 0.004844174310259654
99345268 -0.004724377962238865 0.004822556681109239
99375030 -0.0046730454410290785 0.004821432254969461
99404792 -0.0047323668349181685 0.0047819015814903046
99434554 -0.004732009723349705 0.004758010816057065
99464316 -0.005207641359065906 0.00471301550215467
99494078 -0.004597362636580726 0.004849615337495042
99523840 -0.004455188062815053 0.004941898160973257
99553602 -0.004366352846300721 0.005002941508789776
99583364 -0.0049306578325702625 0.004898842339585361
99613126 -0.0035410153923043117 0.005251237206124554
99642888 -0.004129631550313683 0.005150851385122643
99672650 -0.004037111820396456 0.0052078817085797115
99702412 -0.004574689956682181 0.005134102219377012
99732174 -0.003914973641272259 0.005277449346365619
99761936 -0.0037863924854019664 0.005295245196067058
99791698 -0.004054110998327802 0.00522057110066333
99821460 -0.004040105761911747 0.0052079028537979815
99851222 -0.004137960782264303 0.005168988060175417
99880984 -0.004747100125461236 0.005018217604578583
99910746 -0.004713614591420492 0.005074515163832154
99940508 -0.004820540977971819 0.004965129268024031
99970270 -0.004226370305679299 0.005061904819580353
100000032 -0.004270525561093976 0.005052682612573456
100029794 -0.004247141083471061 0.0050530812668861174
100059556 -0.004227610997107621 0.00506456432831408
100089318 -0.004219625302177802 0.005075474480084837
100119080 -0.0042014118000389365 0.005090150651473961
100148842 -0.004184372417095437 0.005096478699065844
100178604 -0.004168368919848865 0.0051115191737576
100208366 -0.0041485458071849925 0.0051214513676865765
100238128 -0.004126272696935122 0.005128288093036728
100267890 -0.00411538446657299 0.005149615314452871
100297652 -0.0041005167707916885 0.005153855439415691
100327414 -0.0041061526026317016 0.005151558417427682
100357176 -0.0041043722172469455 0.0051615823273880755
100386938 -0.004104871437272185 0.00517186418201282
100416700 -0.0041093686308903655 0.005169681070398705
100446462 -0.004115182229020284 0.005175849283046055
100476224 -0.004117625470255077 0.0051837315538242916
100505986 -0.004120319150988519 0.005183118781561439
100535748 -0.004107078482427379 0.0052011542147568654
100565510 -0.00413625634646291 0.005208948699779585
100595272 -0.004174964291865927 0.005260598580878778
100625034 -0.0042279326091165395 0.005293923397943851
100654796 -0.004271577200011058 0.005336236068304234
100684558 -0.0043225312833044295 0.005371747822879503
100714320 -0.004365516575173025 0.005416910991251151
100744082 -0.004422426846878633 0.0054550992282126395
100773844 -0.004481850750434944 0.00550040043918915
100803606 -0.004538862084330903 0.005537954895044734
100833368 -0.004590879895946848 0.0055739892335142155
100863130 -0.004534836617447234 0.005568935742488362
100892892 -0.004479574136729853 0.005561761076725049
100922654 -0.00442690527020059 0.005546214869763216
100952416 -0.004366597070495807 0.005542912466421352
100982178 -0.0043204129389056095 0.00553227137064489
101011940 -0.004250754888262003 0.0055061062364322785
101041702 -0.004218307391528882 0.0055112109963640415
101071464 -0.0041742722380128565 0.005494078683766269
101101226 -0.004122374553144451 0.005488760243348825
101130988 -0.004093694361797297 0.005475265563423887
101160750 -0.004106481995009958 0.005470726818333138
101190512 -0.00410972404871641 0.0054777000642368566
101220274 -0.004114800615653654 0.005466172251977183
101250036 -0.004097710229088926 0.005445070784799774
101279798 -0.0041176000326318156 0.0054534138184394116
101309560 -0.004124105592900143 0.005445542845365167
101339322 -0.004119790974314906 0.005444708317544643
101369084 -0.004119818574459141 0.005430961983749243
101398846 -0.0040949239259364814 0.005438699741776863
101428608 -0.004045294223287732 0.005505385977867176
101458370 -0.003979307973136588 0.005566261446564097
101488132 -0.003919583388238978 0.00562458976985578
101517894 -0.003863616946400516 0.005683171058256611
101547656 -0.003793812758986242 0.005732123063056541
101577418 -0.0037275819435948067 0.005801052894198207
101607180 -0.0036657233327165397 0.005852110379856475
101636942 -0.003590622541884644 0.005897787893466305
101666704 -0.003527045611186036 0.005950120654842517
101696466 -0.0036188577277860255 0.005903818827121742
101726228 -0.0037018007008733037 0.005849137089027021
101755990 -0.0038112275966198255 0.005804321281999722
101785752 -0.0038918670568298314 0.00574708274913878
101815514 -0.00398780028874709 0.005687205635921356
101845276 -0.004072294870133306 0.0056125394602713945
101875038 -0.004151503502250321 0.005560413496850647
101904800 -0.004238496837814836 0.005483658280867942
101934562 -0.0043092660371891875 0.00541231687482226
101964324 -0.004291505387104884 0.0054223156542255535
101994086 -0.004194829717280825 0.0054728544509524924
102023848 -0.004100051275827565 0.005507774775536578
102053610 -0.00401682296984449 0.0055437360677143745
102083372 -0.003932848491486948 0.005585874235032215
102113134 -0.0038425295027449337 0.00562201889495719
102142896 -0.003752656918161723 0.00565556481597522
102172658 -0.0036708505684955738 0.005696462963786594
102202420 -0.0035761246604396548 0.005725120832044507
102232182 -0.0035462605080889753 0.005753441438475916
102261944 -0.003633911036979612 0.005777109768365141
102291706 -0.0037251651787724013 0.005803763908513211
102321468 -0.0038095304407907956 0.005828678537092646
102351230 -0.003909384935555489 0.0058524938925820415
102380992 -0.0039976797681456075 0.0058723583353527216
102410754 -0.004098722374164584 0.005895312639582252
102440516 -0.004200670410362264 0.005912645200645024
102470278 -0.004306145782857792 0.00592585518147283
102500040 -0.0044119785875657794 0.005946272533539185
102529802 -0.004356472879854841 0.005958649438289445
102559564 -0.004296421006119444 0.005979368501289118
102589326 -0.0042390236495520785 0.0059877736253717605
102619088 -0.0041874338728935465 0.006007123667330961
102648850 -0.004124890218283731 0.006018594328449316
102678612 -0.00407334342123615 0.006030122919542598
102708374 -0.004027515298175702 0.006043144224330802
102738136 -0.003961807702432024 0.006048537934111621
102767898 -0.003915489743921189 0.006066989291492404
102797660 -0.0038820576389050846 0.0060543759095033215
102827422 -0.003880882505871157 0.006014942542473502
102857184 -0.003859752186720865 0.0059930314277121585
102886946 -0.003845193519109977 0.005956904421127178
102916708 -0.003842509314258659 0.005932538618035537
102946470 -0.003819747909647282 0.005901421590205027
102976232 -0.0038096154504298372 0.005867898928909846
103005994 -0.0038117072599192113 0.005839294888488838
103035756 -0.0037889149505715004 0.005813419835286575
103065518 -0.0037826029774479814 0.005802339131124531
103095280 -0.0037847361594746227 0.005830173074352595
103125042 -0.0037968311447765996 0.005855775260948355
103154804 -0.0037966123197686343 0.005875502033528409
103184566 -0.0037962251230655108 0.005908173099772451
103214328 -0.0037923750095901513 0.00593058609088969
103244090 -0.0037998672618306285 0.0059611874218688824
103273852 -0.0037995774197561467 0.005984149401838731
103303614 -0.003809318421255006 0.006009699039679287
103333376 -0.003802434882646642 0.006035091163737804
103363138 -0.0037225557762683844 0.00603359078953383
103392900 -0.0036408152528274802 0.006027070983707527
103422662 -0.0035488942723022185 0.006013169728016513
103452424 -0.003470562498235972 0.0060025355828433845
103482186 -0.0033783195136551647 0.005999800390485794
103511948 -0.003297546228899742 0.005980539291579406
103541710 -0.0032244241747536174 0.005972452479820007
103571472 -0.0031406517796222916 0.005948724025467551
103601234 -0.003059749338172394 0.005948110763396589
103630996 -0.003066079236126365 0.005931842485513737
103660758 -0.0031147896208366787 0.005930197920113995
103690520 -0.003165108481969725 0.005923168377063265
103720282 -0.003210517925169212 0.005921972838061966
103750044 -0.003259129546395323 0.005903928325762819
103779806 -0.0033002795945395475 0.005895881272727774
103809568 -0.003351150776430267 0.0058931451863830095
103839330 -0.003399159962922101 0.005879183811152799
103869092 -0.0034482390953965926 0.005857982035979225
103898854 -0.0034887668612449225 0.005861737576038412
103928616 -0.0035332147696315267 0.005889324602836169
103958378 -0.003571050489956938 0.005906360376793786
103988140 -0.0036152733805435346 0.0059365609404345146
104017902 -0.0036475624259748596 0.005950450452793388
104047664 -0.0036987203121011765 0.005972184978017432
104077426 -0.0037433892878247954 0.006003219767823068
104107188 -0.0037792009162534034 0.00601451150633294
104136950 -0.0038276733300458897 0.006038531510663329
104166712 -0.0038689869374392656 0.006058478407867414
104196474 -0.0038543834003928155 0.0061010964008629005
104226236 -0.0038467817767623494 0.006143026364730918
104255998 -0.003836081041884913 0.006185269440032986
104285760 -0.003825153879563964 0.006225251373859736
104315522 -0.0038097418537644864 0.006272212723366507
104345284 -0.0037968025766064828 0.006316310310677776
104375046 -0.003790826894040451 0.006359505474963505
104404808 -0.003770072156357092 0.006409284900405841
104434570 -0.003752287847877238 0.006450330977953293
104464332 -0.003754298151771724 0.006414353573990912
104494094 -0.0037400049857989077 0.006365205257402241
104523856 -0.0037418914171305053 0.006312651814742031
104553618 -0.003740494991743497 0.006245920576488203
104583380 -0.003722221903041528 0.0061961189610300095
104613142 -0.0037181879896968505 0.006142848924338008
104642904 -0.003704338762775556 0.006092188852261973
104672666 -0.003703942450646161 0.006030167804633347
104702428 -0.0037000424895340953 0.005977330253368948
104732190 -0.0036809912827050458 0.005966524111910942
104761952 -0.0036584659339395902 0.006031675078091258
104791714 -0.0036363851719617883 0.006102975875400741
104821476 -0.0036247960169869323 0.0061743095202627515
104851238 -0.0035956199043019115 0.0062456471126666555
104881000 -0.0035770428714897748 0.006320041408394154
104910762 -0.003552396374166089 0.006394584478784592
104940524 -0.00353731449839954 0.006466391669310016
104970286 -0.0035106980486214385 0.006539589781678175
105000048 -0.003470306603464621 0.006610873400086378
