# HZ S RI R 50
90000000 -0.00021723465859687353 0.005204499406817626
90029762 -0.0001795329052546857 0.005231050320598177
90059524 -0.00039756286528863096 0.005248341137509288
90089286 -0.0002623032123467296 0.005285205249639878
90119048 -0.0004320068481974427 0.005304432478876704
90148810 -0.00029625759273826534 0.005341625755623269
90178572 -0.00031119966975970355 0.005368578977373588
90208334 -0.0002768261472150293 0.005399604543797359
90238096 -0.0004999849607491965 0.005412087781060508
90267858 -0.00036447734501983403 0.005448188129243409
90297620 -0.0003507272822669246 0.00542548521436908
90327382 -0.0002739231151040289 0.005384551861294452
90357144 -0.0005482846035296443 0.005337237509233602
90386906 -0.0002232649800470008 0.0052830979560757226
90416668 -0.0003882202013720515 0.005223861698379833
90446430 -0.00021872963008527237 0.005188537283921752
90476192 -0.0001413074056965182 0.005139583351975811
90505954 -0.00012061618035375795 0.005093888584355456
90535716 -0.0001400251186831641 0.005047102342404216
90565478 -6.287676441023475e-05 0.005019280453343236
90595240 -6.72205127601693e-05 0.005021900407082356
90625002 -2.4383092487132214e-05 0.005025925925586478
90654764 6.047331293054502e-05 0.00503436258876412
90684526 0.00010428379271315998 0.00503686163299992
90714288 0.00010336741610298505 0.00503731824849122
90744050 0.0001502504249712661 0.005035329183495815
90773812 0.0002361344319051304 0.005041071561141128
90803574 0.000237684326044111 0.005045036293929045
90833336 0.00032510899977862095 0.00504809887100547
90863098 0.000353818709170526 0.005015325659278644
90892860 0.00033457606974543263 0.004987966782505743
90922622 0.00026924221374125706 0.004967243557393596
90952384 0.00043271816543960403 0.0049188601212025425
90982146 0.00041674736715141645 0.0048895311356725035
91011908 0.0004843964458415978 0.004858239771748085
91041670 0.0004703883114955578 0.004825028543379686
91071432 0.0004962028551745564 0.00479625455067647
91101194 0.00017491730901345026 0.004798939257503942
91130956 0.0005620720122826692 0.004774326597979278
91160718 0.000507518113169626 0.004789800964943037
91190480 0.0004975970285248514 0.00480475154457905
91220242 0.0003673767689143851 0.004830035950307656
91250004 0.000471059797032439 0.004859345058998135
91279766 0.0003415147649056755 0.004877313653480787
91309528 0.0004770301323815867 0.0049042639730257085
91339290 0.0004236679795394207 0.004925424462404799
91369052 0.00044996448596480026 0.004946563285242346
91398814 0.0002867710353224325 0.004943218941767931
91428576 0.00041581387592021403 0.004915391592546341
91458338 0.0004199428105853926 0.00487517760023391
91488100 0.00043690299836431757 0.004852160936249024
91517862 0.00044774511353054953 0.004819091576210033
91547624 0.0004942589103990425 0.004787761590859899
91577386 0.0005041846894217806 0.004755088367266976
91607148 0.000484096376677468 0.0047226586432470114
91636910 0.0004955668710591933 0.004692215630792775
91666672 0.0005403754731095168 0.004658684522074669
91696434 0.0005859673350171796 0.004646199988466044
91726196 0.0007477855965733714 0.004612778141040156
91755958 0.0007755771600871977 0.004617680924228645
91785720 0.0008208855256399574 0.0046048390757582585
91815482 0.0009301678696614766 0.004578854097389778
91845244 0.0010090514085499588 0.004556495274754568
91875006 0.0010508766206664335 0.004537292593309244
91904768 0.0010350841698482862 0.004514258214849188
91934530 0.001209346777486158 0.0044745680953303104
91964292 0.00124883136353272 0.004464622467930904
91994054 0.001299173936651707 0.004466690625707729
92023816 0.0011952538519561541 0.00447345746694051
92053578 0.0013047164702749184 0.004468278235503678
92083340 0.0013239883988872745 0.0044674209637405845
92113102 0.0013799036812140704 0.004453870522801337
92142864 0.00136578580109635 0.004461607918578857
92172626 0.001413516154136024 0.0044597721897690805
92202388 0.0013144304053424667 0.004460389569208273
92232150 0.0014173640711456937 0.00442721494072548
92261912 0.0013164703835243598 0.004375518337512181
92291674 0.0014171235651650354 0.004314212415625605
92321436 0.0013830354327746981 0.004254289721333686
92351198 0.0013994761892622749 0.0041905473866573366
92380960 0.001357640535787855 0.00413315112911375
92410722 0.0013569130628525209 0.004062481386753928
92440484 0.0013702103146478169 0.004012223470056162
92470246 0.0013622120738981535 0.0039473214305164655
92500008 0.001332186264147127 0.0038908832297999264
92529770 0.0013475328016174797 0.003880884884622985
92559532 0.0013931080913111736 0.003873128971977514
92589294 0.0011844032663256819 0.003890943688240339
92619056 0.0014404425920534832 0.003843902323676405
92648818 0.0014610982253550353 0.0038261305512037754
92678580 0.0014550972706284249 0.0038126048381580393
92708342 0.0014997756936614615 0.0037974919525096155
92738104 0.0015286312804787651 0.003779226636125545
92767866 0.0015254693040099984 0.003763876821252496
92797628 0.0015826023592159164 0.003731918547503382
92827390 0.0016022554655078893 0.0036891826266392605
92857152 0.0016446468282373735 0.0036469653072289856
92886914 0.001628445824141339 0.0036064839933364285
92916676 0.0017584158460202453 0.0035537533165687037
92946438 0.0017766309008109275 0.0035046934160818965
92976200 0.0018159938173897135 0.0034548507012816727
93005962 0.001810730767417839 0.0033971159203001152
93035724 0.0019150761608687375 0.003337696537918431
93065486 0.0019010886045168066 0.003281038319565309
93095248 0.0020407268227048345 0.0031794630860505794
93125010 0.002078183065691643 0.0031056346835426317
93154772 0.002157307548820152 0.0030048475364188917
93184534 0.002138614830217096 0.0029359450593544603
93214296 0.0022458670700804015 0.0028204523605165795
93244058 0.0022547397459489705 0.002737682864037783
93273820 0.0023413591730682116 0.0026133147329349573
93303582 0.0023832013427046487 0.002515832143351596
93333344 0.0024310359901987683 0.0024040396668511205
93363106 0.002411973247423039 0.0023660944966110045
93392868 0.002373027545070211 0.002320448915925916
93422630 0.0023555233783656617 0.002262004196302054
93452392 0.0023497638324417383 0.0022109444892245986
93482154 0.002310831150638307 0.0021688312779566217
93511916 0.0022975326204277566 0.002101488320646536
93541678 0.0022842813662733736 0.0020334805564826797
93571440 0.002241969327021058 0.00198598578702456
93601202 0.0022287543727558734 0.001905934138368615
93630964 0.002224503777729951 0.0018088100097745459
93660726 0.0022214353515830564 0.001699853216029496
93690488 0.0022267096564830345 0.0015751982197844702
93720250 0.00222400554685453 0.0014606914142541168
93750012 0.00222940812855016 0.001338853489893091
93779774 0.0022209241453546723 0.0012280218896235716
93809536 0.0021791560381216233 0.0011176765549764968
93839298 0.0021775101374032014 0.0009931195118349388
93869060 0.0021579886057943288 0.0008575165606546312
93898822 0.0021245770286084584 0.0007442868752638761
93928584 0.002082251848347994 0.0006336493604165776
93958346 0.0020432103194200297 0.0005012082509670259
93988108 0.00197579641306575 0.0004230258925726597
94017870 0.0019273589140490772 0.0003030796641368574
94047632 0.0018773026639447594 0.0001871443168163378
94077394 0.0017843135559883151 6.358385370004274e-05
94107156 0.001718640433866773 -5.885066270901801e-05
94136918 0.0016520490017631955 -0.0001820150105845925
94166680 0.0015748838669402644 -0.00027763306443864436
94196442 0.0015587985119312113 -0.0003914847239000802
94226204 0.0015796410881076673 -0.0005294235827802308
94255966 0.0015369403186871204 -0.0006699924040395403
94285728 0.0015018352672576329 -0.0007922241803290483
94315490 0.0014970006831383537 -0.000976018949095397
94345252 0.0014546461357132193 -0.0011748523851673517
94375014 0.001433097812612143 -0.001346166055032437
94404776 0.001384685843279461 -0.0015921447019605563
94434538 0.0013486792314482646 -0.001820587709239591
94464300 0.0011277132611631393 -0.0019754323747060037
94494062 0.0007782254460935402 -0.001999648997305488
94523824 0.0005038015688783879 -0.002012681099455865
94553586 0.0002791082249068404 -0.0020224985263130636
94583348 4.2520632213152855e-05 -0.001988886788449266
94613110 -0.0001419970996422323 -0.0019745791288736498
94642872 -0.00032279865104601946 -0.0019376472363880535
94672634 -0.0005031536955007909 -0.0018663977918957565
94702396 -0.000685837269623198 -0.0018424871616470014
94732158 -0.0008046240455785163 -0.0018210565483636168
94761920 -0.0009584229193549564 -0.001846031969235626
94791682 -0.0010867254215039081 -0.001883735646456036
94821444 -0.0012464669351636805 -0.001858641140204304
94851206 -0.0013838734696304492 -0.001886474312178909
94880968 -0.0015763689233849979 -0.0018254503598659295
94910730 -0.0016898920703613837 -0.0018247494523895202
94940492 -0.0018375539511080372 -0.0017629929447508476
94970254 -0.0019511889825066392 -0.001779010049286367
95000016 -0.0021280192199731557 -0.001729746483580562
95029778 -0.0022539163361862224 -0.0017584589209441463
95059540 -0.002393740188963611 -0.0016870050550687413
95089302 -0.002572600289101104 -0.0016695280453422538
95119064 -0.002755935844960144 -0.0016313887785575415
95148826 -0.0028795905573779468 -0.0016728583907085102
95178588 -0.0030235401273648985 -0.0015866298491940233
95208350 -0.0031715286248690266 -0.0015462046090088284
95238112 -0.003331931212770208 -0.0015034833323451856
95267874 -0.003489130835626588 -0.0014510661519515436
95297636 -0.0036099604966205 -0.0013925938964407972
95327398 -0.0037503652543729236 -0.001327387263041927
95357160 -0.0038519535320168047 -0.0012160515169713068
95386922 -0.003975577381038088 -0.0011704426338113808
95416684 -0.004109597995112378 -0.0010906052498940774
95446446 -0.004198258268064602 -0.001017302734372236
95476208 -0.004308447040789642 -0.0009174514804339439
95505970 -0.004433925596716998 -0.0008683339492999784
95535732 -0.004515229594565626 -0.0007500818885894231
95565494 -0.0046091539898457535 -0.0006670797219992149
95595256 -0.004709121866669318 -0.0005460068314138287
95625018 -0.004795551691454823 -0.000434823064853679
95654780 -0.004874783125347807 -0.00030774344841266385
95684542 -0.004938766311801687 -0.00019520089797176615
95714304 -0.005019931336579551 -8.484057311512626e-05
95744066 -0.005069465261198592 4.329153780297987e-05
95773828 -0.005145172047360831 0.00012192673771409399
95803590 -0.005211839126988995 0.000258156627094143
95833352 -0.0052552930058095745 0.00036114831718445464
95863114 -0.00526156402250579 0.0004750973724704917
95892876 -0.005259727735291699 0.0005650320992128207
95922638 -0.005271084083077872 0.0006757792165955607
95952400 -0.005285918093066177 0.0007569428043144661
95982162 -0.005269821720428586 0.0008569195705370056
96011924 -0.005854273856285546 -4.580815220518462e-05
96041686 -0.0052456202472187605 0.0010468112955994134
96071448 -0.005245367005986587 0.0011503203007089031
96101210 -0.005220386062433348 0.0012121614517115848
96130972 -0.005892540623220863 0.00036294999054091296
96160734 -0.0052776849722822395 0.0013752576790363334
96190496 -0.005315165098860877 0.0014469153359295667
96220258 -0.005335057164876224 0.001525811018703706
96250020 -0.00537421836575734 0.0016179440647152948
96279782 -0.005414728259654735 0.0016826559372427417
96309544 -0.0054279162559644515 0.0017463494308406985
96339306 -0.005455055784161695 0.001836392858279848
96369068 -0.005481360924678806 0.0018847392975898393
96398830 -0.005492271016948124 0.001979480901336574
96428592 -0.005494169000191134 0.0020768952583133066
96458354 -0.005535267435493592 0.0021574181266069076
96488116 -0.004784581177036611 0.0028697516783584157
96517878 -0.005559575225512251 0.0023463371686610014
96547640 -0.0055519780308516745 0.0024576625569894283
96577402 -0.005574086443654881 0.002530767397942081
96607164 -0.00556710475065642 0.002623147876607932
96636926 -0.0047791458080105615 0.003285194578857379
96666688 -0.005597516257777002 0.002802004649371884
96696450 -0.005555506310379767 0.0028285772314963287
96726212 -0.005518350200807247 0.0028493390334022374
96755974 -0.0063411823749232 0.0022014065146228265
96785736 -0.005422588507401672 0.0028701378238333857
96815498 -0.006266846450915713 0.0022688198683856165
96845260 -0.005358857705239388 0.0029085667249910863
96875022 -0.0053119625303953205 0.0029187735682545827
96904784 -0.0052789890897091026 0.002925141942659725
96934546 -0.005186947814222471 0.002983982644467251
96964308 -0.005211765979435076 0.0029671246369050333
96994070 -0.005227658193944979 0.002967986902649866
97023832 -0.004493189860799319 0.0034232222554849523
97053594 -0.00526472377810369 0.0029924920024966438
97083356 -0.005287818822747098 0.002989541532825572
97113118 -0.006110451962241735 0.002441304818877529
97142880 -0.005296337547873054 0.0029950688270606223
97172642 -0.004559647986213108 0.003432666498439062
97202404 -0.005336412256434628 0.002998006839715328
97232166 -0.005316712155402286 0.0030283062380280197
97261928 -0.005336426612320308 0.0030796457515573556
97291690 -0.005301836492295414 0.00314606828182549
97321452 -0.005288459533838402 0.0032007824454213024
97351214 -0.005292283471480212 0.0032425900512308664
97380976 -0.005278398610924012 0.003293413931372923
97410738 -0.0052401607763416435 0.003380542760132995
97440500 -0.00523212104162574 0.0034338423633441134
97470262 -0.004454887814359366 0.0038398584577598416
97500024 -0.005198674408040191 0.0035393752793100816
97529786 -0.005211865346289898 0.003575093197128176
97559548 -0.004427263764599355 0.003984553178181819
97589310 -0.005188485142250909 0.003696732974196339
97619072 -0.00510613360659474 0.003787096524467842
97648834 -0.005209670820282778 0.0037891574177995437
97678596 -0.005174293496045352 0.003857681317097347
97708358 -0.004400668682566107 0.004224041196364675
97738120 -0.0051697129801856895 0.003953716974018401
97767882 -0.005169245254182981 0.004007723949671167
97797644 -0.005941165429017187 0.0036974449191946547
97827406 -0.005062099829921563 0.004086114865526181
97857168 -0.004946093041138184 0.004142308354584373
97886930 -0.004863561623576378 0.004198132281211656
97916692 -0.005552930767200962 0.003921494501725331
97946454 -0.0047079670239487436 0.004256336823451954
97976216 -0.005347343057165218 0.004006255796224336
98005978 -0.0038488753661798433 0.004569071202284762
98035740 -0.004468161031353221 0.004370915183305772
98065502 -0.004483116357763343 0.004373904404062003
98095264 -0.004554244176738975 0.004401396555348794
98125026 -0.004584180755158666 0.004435562316772039
98154788 -0.003943592228412928 0.004693850967390042
98184550 -0.004732408087407849 0.004480075043940822
98214312 -0.004798191058839891 0.004490528864102866
98244074 -0.004146517691522246 0.004737154943143979
98273836 -0.005003120972711963 0.004494624929365665
98303598 -0.005038550694951489 0.0045223297349763665
98333360 -0.005124699941210754 0.0045383919200131006
98363122 -0.0051543000479885364 0.004508390841405687
98392884 -0.005094497199758275 0.004496729853170813
98422646 -0.005107373900432733 0.004478018371572515
98452408 -0.005091485532006833 0.004455601235947359
98482170 -0.005034233477926409 0.004456880860710719
98511932 -0.005062484539380854 0.004419663997037322
98541694 -0.0042509433506122615 0.004672782652238752
98571456 -0.004977241978509298 0.0044121658987751385
98601218 -0.005709050291741685 0.004119596211726768
98630980 -0.004918555419361347 0.004419505965366295
98660742 -0.004876155092102989 0.004469289835742098
98690504 -0.004099134749092907 0.004740850243167694
98720266 -0.005525451460369587 0.004318105104329049
98750028 -0.004725609957428876 0.004604830640016095
98779790 -0.0046781158901623545 0.0046700670336914645
98809552 -0.004661418556656273 0.004692194888885544
98839314 -0.00456908863279783 0.004749327191477821
98869076 -0.0045634199545992555 0.0047728864905203115
98898838 -0.005201549631172846 0.00463747434338791
98928600 -0.0045021590468211576 0.004856736859228586
98958362 -0.005244034230695303 0.004679681314978708
98988124 -0.00458686612039038 0.004883066597025215
99017886 -0.004548754390381432 0.004933928388855015
99047648 -0.004615767192145974 0.004930932010703157
99077410 -0.004571941633844125 0.0049603970065032425
99107172 -0.004879425782693607 0.005020078151174133
99136934 -0.00464952347593513 0.004978593166015677
99166696 -0.004668332664669834 0.005003944317094111
99196458 -0.004611074022684307 0.005001789841298599
99226220 -0.004617220763431558 0.004984679542149722
99255982 -0.005106013386669196 0.005566265360763563
99285744 -0.004620020104056111 0.004945677100211316
99315506 -0.004881737269700905 0.00493030522453714
99345268 -0.004692701193343612 0.004891874630680547
99375030 -0.004629279340088571 0.0048908966173713255
99404792 -0.00468109175054212 0.004848010892497578
99434554 -0.004682994554140269 0.0048277638705107595
99464316 -0.004576921770374638 0.00489006068353034
99494078 -0.0045518112945125005 0.004923189145029431
99523840 -0.004412786271439263 0.005007499545817102
99553602 -0.004325857756926315 0.0050603537831548084
99583364 -0.00488409189273318 0.004965926393133994
99613126 -0.003493264475536985 0.0053001582022083665
99642888 -0.004071179015507093 0.005216377388749616
99672650 -0.003988571107312705 0.005269387316754135
99702412 -0.004517842936350541 0.005188436263862007
99732174 -0.00385907575378203 0.005331223801019608
99761936 -0.0037369284368917502 0.005343192511311453
99791698 -0.004273305729119824 0.005244525604751151
99821460 -0.0039814957283575815 0.005263794147454834
99851222 -0.004074804889045493 0.005218949289883305
99880984 -0.004673474384481892 0.0050812410012273075
99910746 -0.004088665214042473 0.005171285931959196
99940508 -0.00475443959675158 0.005017503966930183
99970270 -0.004160924814610005 0.005120387822303973
100000032 -0.004205643668882997 0.005100274651615706
100029794 -0.004180389328543685 0.005102531996987157
100059556 -0.004163521297087802 0.005112118431981818
100089318 -0.004147857614253551 0.005123379385625116
100119080 -0.0041279022498689165 0.005130527083216666
100148842 -0.004110121615725375 0.005140238269880162
100178604 -0.0040946779310380025 0.005158650487091751
100208366 -0.004082455731714395 0.005168717322758356
100238128 -0.00406415758267146 0.005167888280659763
100267890 -0.004031620708175544 0.005183817636891643
100297652 -0.00403811436366357 0.005190690646438142
100327414 -0.004035635852793999 0.005204610004966098
100357176 -0.00403828098410938 0.005201948850916915
100386938 -0.00404042974187849 0.005213294974093352
100416700 -0.004037437085291113 0.0052102041833085476
100446462 -0.0040381897263474225 0.005209923552517744
100476224 -0.004044733424807611 0.005214892051834603
100505986 -0.004047202563511422 0.005223926142352153
100535748 -0.004045703851211349 0.005232961365682464
100565510 -0.0040634406737380035 0.0052526401403244615
100595272 -0.00411088206488572 0.005284841033826629
100625034 -0.0041516650831563565 0.005329278599516516
100654796 -0.004195101984059341 0.0053637592154061175
100684558 -0.004250230878815936 0.005406318786774039
100714320 -0.0043046566909168745 0.00544317646387367
100744082 -0.004349845578375705 0.00548498638719832
100773844 -0.004402480325501342 0.005528185763984488
100803606 -0.004454509749553041 0.005572473797826984
100833368 -0.004515855300200314 0.005605650430112228
100863130 -0.004456736497634536 0.005591476674547584
100892892 -0.004405641848653657 0.005583542512678286
100922654 -0.004357830130773537 0.005573870948662077
100952416 -0.004299393209346289 0.005556731406494085
100982178 -0.004243183684020348 0.005549438714328047
101011940 -0.004196003868306807 0.005533772741303214
101041702 -0.0041438422397251625 0.00552553826235101
101071464 -0.004092721591898667 0.005516048631924503
101101226 -0.004047805963617362 0.005493825711262603
101130988 -0.004036765469272288 0.0054946927944462065
101160750 -0.004038770611019262 0.005482537755279199
101190512 -0.004036752452410306 0.005481559731182814
101220274 -0.004041759647768525 0.005472311162391522
101250036 -0.00404760861069893 0.005466443964362845
101279798 -0.0040517902357462285 0.005462917675669919
101309560 -0.004058614470062515 0.005458452824870402
101339322 -0.004056041851047825 0.005452181156664268
101369084 -0.004058381429041198 0.005441205627692814
101398846 -0.00404164392847566 0.005454971439288185
101428608 -0.0039866949653463496 0.005521753492838956
101458370 -0.003928939052573139 0.005565989365634931
101488132 -0.003857095922873651 0.005631953005105787
101517894 -0.003882583734454438 0.005689536269261914
101547656 -0.0037364209693548666 0.005737648326394234
101577418 -0.0036633547408714932 0.005802791383888146
101607180 -0.0035993269435722324 0.005849525635164356
101636942 -0.0035278046717660775 0.005896628664146838
101666704 -0.0034552858997281234 0.005948548716785635
101696466 -0.0035618244269097 0.005896107271710994
101726228 -0.0036523917710907803 0.005845965056666419
101755990 -0.003745844345575732 0.005789104441136564
101785752 -0.0038302130761480955 0.005740575636661979
101815514 -0.003923210524936876 0.005685082885869741
101845276 -0.0040044718408819594 0.005616738931778183
101875038 -0.0040917874272584824 0.005545944192814292
101904800 -0.0041771501700579436 0.005478664269835245
101934562 -0.004260570311552026 0.005407362091199047
101964324 -0.00423476452966946 0.0054161820132238685
101994086 -0.004140760155893107 0.005461165330385427
102023848 -0.004052229175811383 0.005506998623699356
102053610 -0.003974054459899999 0.005544462531661992
102083372 -0.0038801263554128773 0.005583523124020168
102113134 -0.0038020978385377483 0.00561997276587046
102142896 -0.003713084043956357 0.005653736973521208
102172658 -0.003620443532387478 0.005688438599745347
102202420 -0.003530234266330802 0.005715238057598684
102232182 -0.003502075386721252 0.0057429503249141695
102261944 -0.0035905469122813785 0.0057686642539722015
102291706 -0.003677274142380605 0.005802246836832689
102321468 -0.0037671892806600943 0.005827125070431922
102351230 -0.003857538940653987 0.005848530121052012
102380992 -0.003958849791667604 0.005875642988698105
102410754 -0.0040575101775433674 0.005891464289188739
102440516 -0.004151795113618487 0.005910158270671852
102470278 -0.004255461103371976 0.005914492495272496
102500040 -0.004368850145529616 0.005937981335424174
102529802 -0.004311298725723726 0.005951039829011742
102559564 -0.004256267415618391 0.00596834483866136
102589326 -0.004195510102228321 0.005981728565808058
102619088 -0.004142796193377025 0.005997570985063445
102648850 -0.00408979949920736 0.006008948892470452
102678612 -0.004026407985805244 0.006025746234931845
102708374 -0.003978347875725034 0.0060324864612952625
102738136 -0.003928682071315005 0.006042827126078917
102767898 -0.003877145415471402 0.0060522355987658125
102797660 -0.0038470704170264136 0.006040458031093949
102827422 -0.0038403625713579158 0.006009338677584144
102857184 -0.003829186869909737 0.005977317662911606
102886946 -0.0038087695155253273 0.005949977390337127
102916708 -0.0037907756824292075 0.005917248515115213
102946470 -0.00379138321935204 0.005884482374781634
102976232 -0.003784155210207299 0.0058639254103168125
103005994 -0.003769035039410535 0.005835334221308887
103035756 -0.0037588602053331742 0.005796858129216119
103065518 -0.0037561408145614845 0.005792235958106207
103095280 -0.0037582416183212326 0.005820451864288178
103125042 -0.0037535959980521867 0.005840359323899384
103154804 -0.0037607291364029917 0.0058679073839700705
103184566 -0.0037666680005882833 0.005887417920360028
103214328 -0.0037730403511799385 0.005920736624463726
103244090 -0.003771071592590641 0.005942266060691995
103273852 -0.003767153835881109 0.005973592531080623
103303614 -0.0037821591625619715 0.005998311769677845
103333376 -0.0037844222327594055 0.006028113779528733
103363138 -0.003695133404311428 0.006016740181005591
103392900 -0.003603265273134013 0.006010583769655523
103422662 -0.0035195173432798627 0.006002651344512985
103452424 -0.003438539266692318 0.005989467628086138
103482186 -0.0033553416133600116 0.005980179987934231
103511948 -0.0032724670173943067 0.005968534875806735
103541710 -0.003190207528638085 0.005962536493443998
103571472 -0.0031146327076860864 0.005948368507741496
103601234 -0.0030349752653864998 0.005923929064031
103630996 -0.003040169955656142 0.005923764223360219
103660758 -0.003088376639280091 0.005910517952194671
103690520 -0.003132630041699776 0.00590770106103707
103720282 -0.003185181226211572 0.005903371794105924
103750044 -0.003236944227228016 0.005900539379908061
103779806 -0.0032816845337310502 0.00588006613527189
103809568 -0.003328655092703614 0.005874178035900943
103839330 -0.0033764466836610453 0.00586604843770433
103869092 -0.0034227436619980803 0.005857195155364236
103898854 -0.0034672161017710625 0.005852109163253599
103928616 -0.0035053055799917346 0.005876825670360865
103958378 -0.0035423153204458776 0.005893979564729906
103988140 -0.003593458607204184 0.005921643281565016
104017902 -0.003624646219151213 0.005934442585597708
104047664 -0.0036724760358874094 0.005954903347183065
104077426 -0.003710180999004532 0.0059854298223001685
104107188 -0.0037620730599600316 0.006009532129446493
104136950 -0.0038085590993682064 0.006021748167130904
104166712 -0.0038430954712322563 0.006044150110123622
104196474 -0.0038377994115367654 0.006092443862481951
104226236 -0.00382213702055396 0.006131617062005072
104255998 -0.003812735657277442 0.00617063920662763
104285760 -0.0038075199395456727 0.0062187283697085
104315522 -0.003783379788926486 0.006262887990747566
104345284 -0.003774299201013039 0.006307996942183456
104375046 -0.003760576038892259 0.006346435247992483
104404808 -0.003752251709772915 0.0063934963231195505
104434570 -0.003732446557269748 0.00643850551607182
104464332 -0.0037267916587645426 0.006414373047766417
104494094 -0.00372085211097733 0.006348068872224124
104523856 -0.0037175549282349864 0.006295075723777914
104553618 -0.0037185370984700724 0.006238000022443946
104583380 -0.0037036104647573645 0.006182766493382051
104613142 -0.003697785560297282 0.006130119009570067
104642904 -0.0036892194859439744 0.0060696723367109975
104672666 -0.0036772606580550518 0.006023704396894997
104702428 -0.003676446713770033 0.005971521970803128
104732190 -0.003665342527614604 0.005951475707005299
104761952 -0.00364737035300946 0.006026759898922553
104791714 -0.003634087327617703 0.006094470812285644
104821476 -0.0036016876548494695 0.006170559166136439
104851238 -0.003588471699825207 0.006238837192307256
104881000 -0.0035661907430405474 0.0063108866460424235
104910762 -0.003537776208517327 0.006382010233178889
104940524 -0.0035152261968932706 0.006454152329468512
104970286 -0.0034901158017890854 0.006525357730848744
105000048 -0.0034577419054868707 0.006606986980165593
