# HZ S RI R 50
90000000 -0.0001970992777532822 0.005193423575659095
90029762 -0.0001674172086551559 0.0052222311735034025
90059524 -0.0003853854016157836 0.005234754747357513
90089286 -0.0002474624022420094 0.0052757965882678035
90119048 -0.0004145493686229695 0.005288575008596576
90148810 -0.0002773860287101172 0.005330174012969245
90178572 -0.00029684118121481025 0.005358539795629362
90208334 -0.00026136577732300414 0.005389068414656083
90238096 -0.0004864125994620897 0.005395097059082105
90267858 -0.0003493988861428589 0.005439284265440354
90297620 -0.0003381239969920125 0.005410111549681847
90327382 -0.00025578558507990127 0.005367989780135348
90357144 -0.0002777273880500507 0.005317316083327058
90386906 -0.0002025850813469868 0.005272404883349405
90416668 -0.000368251392556981 0.00520939745594356
90446430 -0.00020135081766401783 0.005173156741504722
90476192 -0.00013110479179230517 0.005128057845974521
90505954 -0.00010620994484116878 0.005085180342139066
90535716 -0.00012230264031310345 0.005033366614507621
90565478 -4.887300115414964e-05 0.00500856586628364
90595240 -5.080939564751305e-05 0.005009340328432797
90625002 -7.295325876779663e-06 0.0050144174365400794
90654764 7.803611326876494e-05 0.0050190573250114565
90684526 0.00012273913679172898 0.00502682253921031
90714288 0.00012191723422302585 0.0050236196486691245
90744050 0.0001637513483509697 0.005022662509414963
90773812 0.0002558885641637358 0.005030577982755786
90803574 0.0002539007059437444 0.005028449161607743
90833336 0.00034384009687010546 0.005026863878704004
90863098 0.00036953314789700683 0.004999447821765094
90892860 0.00035356154994558545 0.004966309699601519
90922622 0.00042137622785982714 0.004932931861337139
90952384 0.0004478221960525519 0.004903959404804911
90982146 0.0004345020690353555 0.004872052385911909
91011908 0.0004993945503638758 0.004841183816147221
91041670 0.00048604092545924345 0.004812373737250357
91071432 0.0005107470754261217 0.004781915365344515
91101194 0.00042276826422588923 0.004745532461019609
91130956 0.0005806111672321265 0.004748126768202892
91160718 0.0005258968028224086 0.004773139682552868
91190480 0.0005143351037001565 0.004793373054489325
91220242 0.00038779714373436415 0.0048104198655718675
91250004 0.00048762147977662824 0.0048379731337829255
91279766 0.0003605281392999432 0.004857593568099479
91309528 0.0004977674615088692 0.004885840618963193
91339290 0.0004426834080568679 0.004898441751152095
91369052 0.00047118721499385673 0.004921804793569578
91398814 0.0003099331692986984 0.004917559825124758
91428576 0.00043075599986122783 0.004892162403193004
91458338 0.0004799700364727659 0.004859185005192975
91488100 0.00045561656026106616 0.004830154611416537
91517862 0.00046699027343567604 0.0047953026535410516
91547624 0.0005175919376519287 0.004762649571694609
91577386 0.0005238816018945827 0.004732085331091501
91607148 0.0005023415826265347 0.00469572141416189
91636910 0.000516810198484847 0.004663185470448475
91666672 0.000560512101812932 0.004634134384190573
91696434 0.0006022680733399987 0.004625397974067573
91726196 0.0007183941166558093 0.004604813372764428
91755958 0.0007955436902901982 0.004591372018832458
91785720 0.0008361885014196978 0.004570638680232827
91815482 0.0009515639607160425 0.004548896175984437
91845244 0.0010279325807726481 0.004526980034472973
91875006 0.0010733725820356891 0.004505472923989922
91904768 0.0010529748437544232 0.004477095155497333
91934530 0.001225332475965808 0.004442236440912095
91964292 0.0012637131574524218 0.00443537027114187
91994054 0.001315151771377387 0.004432216808790444
92023816 0.0012069320083011484 0.004438016387632218
92053578 0.0013232658973769173 0.004431876614415233
92083340 0.001343646499638273 0.004429106872136057
92113102 0.0013958216421575077 0.004425027856420972
92142864 0.0013835156749141598 0.004422344238834443
92172626 0.001431296109028222 0.004414640576395067
92202388 0.0013336482109020564 0.004412993291661233
92232150 0.0014293508308676258 0.004391889503772647
92261912 0.0013296528051213014 0.004332838639614897
92291674 0.001438591768451951 0.0042676824209981834
92321436 0.0013936045666606736 0.004207178006978574
92351198 0.0014086212343135478 0.004143122938800109
92380960 0.0013712645029837652 0.004085964816801848
92410722 0.0013687675310679812 0.004020295790675449
92440484 0.0013845675726245044 0.003960017605797151
92470246 0.0013795151892146964 0.003904888594347429
92500008 0.0013424925614200264 0.0038358596216271587
92529770 0.001364634364561025 0.003829957516469316
92559532 0.0014090699799766586 0.0038094427991401973
92589294 0.001405425847583854 0.003801095765059429
92619056 0.0014488291130617045 0.003784095892415293
92648818 0.0014677247932390048 0.0037753486359220867
92678580 0.0014616932707249954 0.0037552180385339202
92708342 0.0015124274984025538 0.003735179485965413
92738104 0.0015324066334869728 0.003711313689333823
92767866 0.0015312389296295297 0.0037007060015269316
92797628 0.0015856946234110779 0.0036591476503582856
92827390 0.0016102588446096186 0.0036204675156443836
92857152 0.0016435309010996598 0.0035710137063499742
92886914 0.0016139302702218054 0.003540857351099319
92916676 0.0017517476981688891 0.0034827129943507235
92946438 0.0017642246893490668 0.0034302744101405223
92976200 0.0018074480624467252 0.003376152989314235
93005962 0.0017839065385680626 0.0033345504343983458
93035724 0.0018769572297892279 0.003262113864738297
93065486 0.0018636363850268334 0.0032043423782329274
93095248 0.0020096104047041376 0.0031080856314641163
93125010 0.002040603547209076 0.003019922637698075
93154772 0.00211351563878173 0.00293066875816565
93184534 0.002093913106285602 0.0028623137664543483
93214296 0.002195908237177735 0.0027426187725112703
93244058 0.0022033453668854177 0.0026667194907227265
93273820 0.002279669140244582 0.00253990928233187
93303582 0.002317763862905382 0.002442521236349471
93333344 0.002366366504466603 0.002330920431560396
93363106 0.0023430822605284554 0.0022818240003630876
93392868 0.00230939334260555 0.002246931097262998
93422630 0.002276442589825244 0.002208458656916779
93452392 0.002271346680689144 0.002141552099180531
93482154 0.0022423648155990815 0.0020943501576798484
93511916 0.0022234614653739177 0.0020249178583093626
93541678 0.002200171630870934 0.001972049696578105
93571440 0.0021588089059929047 0.0019126088151573543
93601202 0.0021415329926380636 0.0018434323444699386
93630964 0.0021447758710610963 0.0017499427211446756
93660726 0.0021454972827818484 0.0016472970824513973
93690488 0.0021533125310279275 0.001531492261525635
93720250 0.002147252979667872 0.0014199936337682992
93750012 0.0021472143239144154 0.00130139738843286
93779774 0.0021457796739157787 0.001181348693676309
93809536 0.002104488022508022 0.001078915286900364
93839298 0.0020919206272353445 0.0009454051125354178
93869060 0.0020668437396488826 0.0008196558725306692
93898822 0.002030805857851014 0.0006905820430493075
93928584 0.0019888854690431556 0.0006002797592954191
93958346 0.001943467176844853 0.00048242985022776817
93988108 0.001879448451349751 0.000389031072418994
94017870 0.001820459413004001 0.00027367204036797733
94047632 0.0017619730196891611 0.0001608405266775125
94077394 0.00168511641143919 4.8525755618450765e-05
94107156 0.001632263764646132 -6.225656296699562e-05
94136918 0.0015318534628816413 -0.00016404527453023327
94166680 0.0014544013839307326 -0.00027287823407183526
94196442 0.001444460387270304 -0.0003851455025024175
94226204 0.0014323108334715325 -0.0004987342020094098
94255966 0.001388793366391323 -0.0006405828976562548
94285728 0.0013850287432984843 -0.0007707382970352523
94315490 0.0013564260927476615 -0.0009267860888720864
94345252 0.0013078865944660734 -0.001124441766301657
94375014 0.0012861416198850794 -0.0013253003711768642
94404776 0.0012320426381043019 -0.001564049168407539
94434538 0.001201230076355408 -0.0018172020078702023
94464300 0.0009830474163906825 -0.0019235589923517274
94494062 0.0006690313214882924 -0.001971217662950618
94523824 0.0004232908789449025 -0.0019473404849191366
94553586 0.00020307986567617788 -0.0019429412026266244
94583348 -6.86753832814493e-06 -0.0019503032630652872
94613110 -0.00022002269723142426 -0.0019051239381905236
94642872 -0.00036159853105758655 -0.0018839119788530807
94672634 -0.0005440361059035125 -0.0018504016609797293
94702396 -0.0006799364588032133 -0.0018222606503030764
94732158 -0.0008334187280856439 -0.0017903021725971043
94761920 -0.0009687747018443007 -0.0018027686902277258
94791682 -0.0010990715772680915 -0.0018456427572290572
94821444 -0.0012782409855284543 -0.0018124632420574952
94851206 -0.0014092264404525342 -0.001827662361526556
94880968 -0.001593146472448193 -0.0017569183969662766
94910730 -0.0017204634170671692 -0.0017499954479998291
94940492 -0.0018698988446155197 -0.0017210457733519177
94970254 -0.001992232783533852 -0.001727146208099562
95000016 -0.0021327084338490726 -0.0016548755249294648
95029778 -0.00226654309284207 -0.001692250544546094
95059540 -0.002422613563477304 -0.0016407311164519133
95089302 -0.0025889278530113135 -0.0016234439187554326
95119064 -0.0027302580810964713 -0.0015918130070974915
95148826 -0.0028629508334569276 -0.0016349767567666277
95178588 -0.003037357502034433 -0.001542401307391671
95208350 -0.0031833044286890995 -0.0015331773814523935
95238112 -0.0033025858083636 -0.0014551474308076141
95267874 -0.0034697120856254826 -0.0014327042187325266
95297636 -0.003597369158452073 -0.001381882659644186
95327398 -0.0037320630862438644 -0.0013037722797309599
95357160 -0.003840805199604854 -0.0012528041541354823
95386922 -0.003971149438644786 -0.0011451590356522893
95416684 -0.004075578520067517 -0.0010962248732846907
95446446 -0.00418328645273536 -0.0010326281410630348
95476208 -0.0042945529269666875 -0.0009172446735675589
95505970 -0.004394334115566768 -0.0008460921226617904
95535732 -0.0045079905948984325 -0.000775961508171574
95565494 -0.00459629354478897 -0.0006901681786359815
95595256 -0.004688903089916661 -0.0005712318331391375
95625018 -0.0047672110808249435 -0.00047538631207502284
95654780 -0.004859698984028065 -0.00035567280867107565
95684542 -0.004934826385865645 -0.00021819999965136478
95714304 -0.005005199939641376 -0.00011409345376789599
95744066 -0.005082064817966767 2.1704925591851476e-05
95773828 -0.005138482385872172 0.00010891964240773406
95803590 -0.005198682605005459 0.0002472136412367689
95833352 -0.0052522560320249915 0.0003411817906199569
95863114 -0.005256305363391525 0.00045475610181531904
95892876 -0.005274861790215488 0.0005571039734626921
95922638 -0.005279495920188154 0.0006635992285310148
95952400 -0.005273893765187196 0.0007536354272971723
95982162 -0.0052716433507489415 0.0008657282421605445
96011924 -0.005706028670686842 0.00015467453609341737
96041686 -0.00517714447805484 0.0010872090751407905
96071448 -0.00516357594876942 0.0011606036489402339
96101210 -0.005137831519963809 0.0012439381908191962
96130972 -0.00580331141722418 0.00042064172230678836
96160734 -0.00519266704690936 0.0014148941629149204
96190496 -0.005052878507251805 0.0016030276135493074
96220258 -0.005347513302324338 0.0015279674526914374
96250020 -0.005291508970717428 0.0016363779686792625
96279782 -0.005318582882130455 0.0017034830445206484
96309544 -0.005338382715633986 0.0017862937968830313
96339306 -0.0052736727648511495 0.0019465438421412543
96369068 -0.005288410517485183 0.001988015103622877
96398830 -0.005396972206628355 0.0020036851569844682
96428592 -0.005415529956858721 0.002093283634059474
96458354 -0.005441027086383154 0.002182056937521814
96488116 -0.0046993715490151276 0.0028761566950823657
96517878 -0.0054676669916718795 0.0023713651573232662
96547640 -0.005469034827626327 0.002478520675660585
96577402 -0.00548792879319378 0.002550787383061172
96607164 -0.005486204861034564 0.0026590549986886497
96636926 -0.004705254663127932 0.0032733116857281354
96666688 -0.005603096424601884 0.0027857685824232183
96696450 -0.005452806691652015 0.002844637053278129
96726212 -0.005436088482758598 0.002848499187227282
96755974 -0.006230770782357687 0.0022311461964847753
96785736 -0.005336601285044247 0.0028850221590996056
96815498 -0.006142734568140727 0.0022725388739244473
96845260 -0.005257375097531505 0.0029118335593579696
96875022 -0.005219383541192797 0.0029240202389181898
96904784 -0.005200768985138773 0.002927932009257895
96934546 -0.0050994505484487085 0.0029724443939898306
96964308 -0.005135223191982142 0.0029633414501063597
96994070 -0.005150064423165027 0.0029632563664595134
97023832 -0.004428999489451135 0.003407308761162379
97053594 -0.00517926812553002 0.0029813534794208493
97083356 -0.005203051660623161 0.002984637827276998
97113118 -0.00598320130167131 0.00244904229558892
97142880 -0.005198638791079058 0.002996956038444453
97172642 -0.004482119637219257 0.0034147436531609494
97202404 -0.005233433083221054 0.0029716908243304506
97232166 -0.005226423701522891 0.002996668535410467
97261928 -0.005236945296893423 0.003037473665111618
97291690 -0.005199860982750067 0.0031122206605665374
97321452 -0.005184242089531019 0.0031762883313771356
97351214 -0.005193003524958371 0.00321511633145102
97380976 -0.005183156129393647 0.0032738846874248773
97410738 -0.005143374301220286 0.0033270038273520456
97440500 -0.005128828309582325 0.003391595037876154
97470262 -0.004381990756491328 0.0038042249262864067
97500024 -0.0050934118076640875 0.003492905703080378
97529786 -0.005129123661953997 0.0035244379048121723
97559548 -0.004348522562544945 0.0039547868220143195
97589310 -0.00509967803970867 0.0036478937504423044
97619072 -0.005014936929294738 0.0037477685921248616
97648834 -0.005119168809149003 0.0037470556442812616
97678596 -0.005098161387048677 0.003820975779104881
97708358 -0.004328296182560004 0.004189498501461024
97738120 -0.005093863590734711 0.003920125692886367
97767882 -0.005088295663781291 0.003980971377831696
97797644 -0.0058472461935211465 0.0036519169586541195
97827406 -0.004979554167156276 0.004052573562804749
97857168 -0.00485679580062401 0.004119895065819273
97886930 -0.004785477605666945 0.004149431939268803
97916692 -0.0054644326402282116 0.0038861036779492242
97946454 -0.004635613577704854 0.0042234036003819695
97976216 -0.005202257616958263 0.004014829700957575
98005978 -0.0037971941933727504 0.004541596854090026
98035740 -0.004417106830147313 0.004333606435462858
98065502 -0.004414002253424326 0.004343740072401139
98095264 -0.004487287143427783 0.0043732473034061164
98125026 -0.004523516418721177 0.004399659180614352
98154788 -0.0038985915681260556 0.004656822924839888
98184550 -0.004575074740476298 0.004459115919909903
98214312 -0.0047453276634457425 0.004453195621895025
98244074 -0.0040078373010264765 0.0047288674909675464
98273836 -0.00493633628257944 0.004474413025838612
98303598 -0.004871626789048111 0.004515498063811905
98333360 -0.0050467456768384005 0.004496767262347522
98363122 -0.004978551532282616 0.0044984174771802434
98392884 -0.0050117373981530015 0.004472458376135057
98422646 -0.005044890666644948 0.00443991610227126
98452408 -0.005024040102981524 0.004422907742889029
98482170 -0.004966993863284064 0.0044211109077654616
98511932 -0.004991761954962187 0.00438977293930645
98541694 -0.0041955179609751685 0.004638736071821557
98571456 -0.004910589161868657 0.0043685683169179795
98601218 -0.005630613838731078 0.004065106325819035
98630980 -0.004855682231085095 0.004374878593498447
98660742 -0.0048080717813293325 0.0044282252212004955
98690504 -0.004030929710315364 0.004706589941979179
98720266 -0.0054409927110105165 0.004275060645914997
98750028 -0.0046626283510927185 0.0045729595492655616
98779790 -0.004617913595084229 0.004620048121058104
98809552 -0.00460729699455009 0.0046459011964272295
98839314 -0.004517012243080236 0.004702875711920718
98869076 -0.0045087944403732864 0.004729351654652955
98898838 -0.005146332185912025 0.004579260647815671
98928600 -0.004443898223559292 0.00479807198007357
98958362 -0.005174163994989798 0.004625972247723712
98988124 -0.004522173326020303 0.004830437042272995
99017886 -0.0044997639748789505 0.004890870826346261
99047648 -0.004580626822255891 0.004871647628039067
99077410 -0.004534184863335572 0.004921717384954661
99107172 -0.004545633130019716 0.004935851881584599
99136934 -0.004605440196449057 0.004949626531210667
99166696 -0.004626823961321828 0.0049571735461781275
99196458 -0.00457059753970765 0.0049606679426918545
99226220 -0.004492462553189466 0.004935497055716868
99255982 -0.004636012896947274 0.004909453334160824
99285744 -0.004582048232291143 0.004903313640956542
99315506 -0.004630418911463248 0.004869152149144525
99345268 -0.004643799678668243 0.0048436225039317545
99375030 -0.004587236064657214 0.004835959640217616
99404792 -0.004638230925418325 0.004806045347790462
99434554 -0.004640636301257738 0.004786439866556001
99464316 -0.0045356884272485685 0.004836665750434804
99494078 -0.004506343221269269 0.004882075333582497
99523840 -0.004372196694090014 0.0049496912839577184
99553602 -0.004295070989599932 0.005004676549530237
99583364 -0.004847013322844426 0.004905335075248489
99613126 -0.0034688032980898145 0.005256705116485807
99642888 -0.0040449065011360615 0.005161399221908684
99672650 -0.003966238898501947 0.00520360331697256
99702412 -0.00448565526604353 0.0051322518451725994
99732174 -0.003839642782756591 0.00527903661370797
99761936 -0.003719171017647543 0.00528184855559696
99791698 -0.003986112343419501 0.005212745237977027
99821460 -0.003969094379144828 0.005202910355486299
99851222 -0.004061181034233782 0.005154463922268794
99880984 -0.004655240606415589 0.0050038239821034915
99910746 -0.004078449248118481 0.005123416477908446
99940508 -0.0047459897857264005 0.004955585993817502
99970270 -0.004149992889633534 0.005050596119692117
100000032 -0.004193998720298851 0.005035987664541272
100029794 -0.004174312242850995 0.005034468073848353
100059556 -0.004161266197877982 0.005050452093837415
100089318 -0.004144561991738521 0.005060754378149812
100119080 -0.004130067548575867 0.0050759513863232845
100148842 -0.0041131663227887815 0.005083650514689242
100178604 -0.004098766798506431 0.005093439954929798
100208366 -0.004080660432178271 0.005106430743721234
100238128 -0.004063146891065928 0.0051123488427198185
100267890 -0.004044276166488137 0.005122731328897086
100297652 -0.0040452790571991965 0.005137900062833644
100327414 -0.0040435768391816175 0.0051297695353323845
100357176 -0.004042974490576271 0.0051397667760862175
100386938 -0.004047198347858953 0.005144215579262126
100416700 -0.004046359262922144 0.005146359840266648
100446462 -0.004055166139692112 0.005145784887748118
100476224 -0.004055443132820354 0.005155948988209588
100505986 -0.004049953781728904 0.005157715647884154
100535748 -0.004066338754879254 0.0051603500626236035
100565510 -0.004079982225878704 0.005178880987620928
100595272 -0.00411706145321669 0.005218656827439317
100625034 -0.0041693715037115055 0.005258293975462578
100654796 -0.004221157017400023 0.005293071317907344
100684558 -0.004267318518421544 0.005335200192177159
100714320 -0.004317760041123807 0.005375818714415029
100744082 -0.004364629806869082 0.005411577186807645
100773844 -0.004423127220374838 0.005447192017005501
100803606 -0.0044727780054850995 0.00549498002126423
100833368 -0.004540215634359291 0.005533408244669176
100863130 -0.004486289123902072 0.005521855895140301
100892892 -0.00443300835693831 0.005511451225472814
100922654 -0.004378214200255957 0.00550032291088079
100952416 -0.004328235009433442 0.0054998313380183435
100982178 -0.004274563608875095 0.005481613079707779
101011940 -0.004226440021313298 0.005468824781960533
101041702 -0.004178416953144122 0.005456895147977905
101071464 -0.004121282222270113 0.005450709689892238
101101226 -0.004081281968412855 0.005436658321400154
101130988 -0.004072623234570123 0.005431803874340533
101160750 -0.0040653989634554105 0.005423588088558018
101190512 -0.004065391452338282 0.005425336121082691
101220274 -0.004075446790171859 0.005412097228722205
101250036 -0.004082626459581159 0.005412943981707244
101279798 -0.004084024637548929 0.005406788135990547
101309560 -0.0040898373193778235 0.0054022371563734175
101339322 -0.004095493670996695 0.005383106101884911
101369084 -0.004094352989724255 0.005378806572666736
101398846 -0.0040870316995575634 0.005398661755074817
101428608 -0.004028418590113372 0.0054538654561683796
101458370 -0.003966120193839899 0.005513740835820297
101488132 -0.0039045920801025983 0.005563797946148949
101517894 -0.003841948595830881 0.005630795414696037
101547656 -0.0037796989286448513 0.005688237929737042
101577418 -0.0037150403575199106 0.005737116320978531
101607180 -0.003650566833241003 0.005793432150722472
101636942 -0.003588408124349258 0.005843328624167988
101666704 -0.0035112654011058976 0.005892832182158706
101696466 -0.003610471916385588 0.005844199386065216
101726228 -0.0037069115264586577 0.005796391694905273
101755990 -0.0037972980687651513 0.005745232928035875
101785752 -0.0038777762774546026 0.005694626648288082
101815514 -0.00397990763444113 0.005632067976311913
101845276 -0.004061430892385463 0.005567410067669729
101875038 -0.004147398732051961 0.005498673371499702
101904800 -0.004234148522058821 0.005429507478400269
101934562 -0.004309758833473092 0.005356623811710115
101964324 -0.00428350411114771 0.005367931375769901
101994086 -0.00419584362111656 0.005405951693384195
102023848 -0.004102980895833603 0.005445622224375365
102053610 -0.00401703752343795 0.005491027944599047
102083372 -0.003929600507425542 0.005532012683527848
102113134 -0.0038536981902347273 0.005570938413774734
102142896 -0.0037622969691088145 0.005606238586469633
102172658 -0.003670466947791817 0.005637688374299148
102202420 -0.0035885968902062016 0.005667953929630347
102232182 -0.003554191649774265 0.005700192311332252
102261944 -0.0036357700600927203 0.005728184885790929
102291706 -0.003723895478126341 0.005750448982469382
102321468 -0.003822668386199368 0.005776149536066395
102351230 -0.0039180399154235 0.005802317087180237
102380992 -0.004008436310962843 0.005825033649982223
102410754 -0.004109124447101568 0.005835792820514091
102440516 -0.004211569685024373 0.005862272580135937
102470278 -0.00431507992714062 0.0058744561823747
102500040 -0.004414704476212697 0.0058859893398014755
102529802 -0.004362280657819898 0.005907466503711083
102559564 -0.004312949330450493 0.005919253462645534
102589326 -0.004255824013273182 0.00593912412353919
102619088 -0.004199554742027925 0.005955786040028526
102648850 -0.004141498857293961 0.005961356832076672
102678612 -0.0040867588101123 0.005982381078790234
102708374 -0.004028848021337805 0.0059887850354716455
102738136 -0.003981504826050916 0.005995843305631309
102767898 -0.003923011089322778 0.006015385244975437
102797660 -0.0039035786748457275 0.005999421592885087
102827422 -0.003890854877127265 0.005970111888768705
102857184 -0.0038737209659796944 0.005938813534328023
102886946 -0.0038737780981613367 0.005906822824350952
102916708 -0.0038645976372678405 0.005885502768451989
102946470 -0.003842341147534353 0.005853361904276796
102976232 -0.003840095149105315 0.005816729085607387
103005994 -0.0038262438106717277 0.0057930737082675845
103035756 -0.0038110754511934664 0.005769278733447077
103065518 -0.0037999094296182192 0.005756369894348766
103095280 -0.003813371800200895 0.005780573027205411
103125042 -0.0038111570558666814 0.005803504259410824
103154804 -0.003817645296029095 0.005837305564494468
103184566 -0.003817275474610576 0.005857741522603865
103214328 -0.003824522108352488 0.005878997981999523
103244090 -0.003826893042687039 0.005912738555620034
103273852 -0.0038254449241045207 0.005938696056512355
103303614 -0.003830465405215896 0.0059580535067627356
103333376 -0.0038368458544617884 0.005985825064265069
103363138 -0.0037588501157265735 0.0059839557478704305
103392900 -0.003660346357290314 0.005975980604429022
103422662 -0.0035821103702977854 0.005970829264290736
103452424 -0.0034976737733166704 0.005961235053010567
103482186 -0.003411585735794822 0.005961883553938359
103511948 -0.0033325045321981445 0.0059419295010205075
103541710 -0.0032512752915233407 0.005932912171986482
103571472 -0.003171845222448739 0.005916606013030326
103601234 -0.003087786392173199 0.00590477703961617
103630996 -0.0031044371532168765 0.005891232428880549
103660758 -0.0031448782579297997 0.005887556283315147
103690520 -0.0031970141413913697 0.005884566594396907
103720282 -0.0032492859622669647 0.005878084698584492
103750044 -0.0032916938745915563 0.005873223630042619
103779806 -0.003343760781103255 0.00586330385543984
103809568 -0.003386034071591612 0.005853143470281025
103839330 -0.003444098242666583 0.005843982059439953
103869092 -0.003488773443258977 0.005832740060733827
103898854 -0.0035314403503823094 0.0058258736970031
103928616 -0.0035691269997981654 0.005848056764880822
103958378 -0.0036120457080699143 0.005872205390544676
103988140 -0.00364529588984786 0.005890790421606042
104017902 -0.0036965387548597143 0.005915009198911194
104047664 -0.003738360696174284 0.005940488418596948
104077426 -0.003786439682752806 0.0059601487243560935
104107188 -0.00382485229851372 0.005980719064346489
104136950 -0.0038678570060412605 0.006008460140674068
104166712 -0.003912478167617322 0.006021392725613209
104196474 -0.003901545321333431 0.0060669003238028475
104226236 -0.003895702469643001 0.006110222185099162
104255998 -0.0038808301937700183 0.006154452744894129
104285760 -0.003867665443253072 0.006194280450208452
104315522 -0.003856504912315012 0.006235657385858438
104345284 -0.003854747724024649 0.006287108939110754
104375046 -0.0038296891170715532 0.006329285799868491
104404808 -0.003815963629549626 0.006379632979271772
104434570 -0.0038042389231221258 0.006415284824081265
104464332 -0.003795840340298882 0.006394691687396964
104494094 -0.0037926507374020217 0.006342204757429799
104523856 -0.0037839605436354143 0.006273090422058667
104553618 -0.003765329904542777 0.0062161196968128175
104583380 -0.0037531921824852416 0.0061692628795976005
104613142 -0.0037410969671108664 0.00611320240614683
104642904 -0.003736578741087207 0.006062199133575824
104672666 -0.0037276121528868884 0.006002401243324988
104702428 -0.0037077665850140896 0.005951331028921502
104732190 -0.0036966206770816562 0.005925694761872972
104761952 -0.0036794866943725296 0.006008654227166909
104791714 -0.0036680670160679357 0.006071240936170284
104821476 -0.003642459393595105 0.006138738495205068
104851238 -0.0036206237963937334 0.006222951498307823
104881000 -0.0035961315809476656 0.006287690270685138
104910762 -0.0035705267074290165 0.00636305164236967
104940524 -0.00354662041230314 0.006441099301233538
104970286 -0.0035222495124088388 0.0065138486179923405
105000048 -0.0034701398880801035 0.006588738529469081
