# HZ S RI R 50
90000000 -0.00019021450529490048 0.005182753196611584
90029762 -0.0001548247801193904 0.00521688479029131
90059524 -0.0003683041514357914 0.005227492688225372
90089286 -0.0002357615419277348 0.0052717841846712755
90119048 -0.0004034555802887269 0.005284901640517447
90148810 -0.00026673153713893547 0.005323387894658689
90178572 -0.000280232958022243 0.005348610263614051
90208334 -0.00025082067042892306 0.005380188574090342
90238096 -0.0004697233982535994 0.005390425092907232
90267858 -0.00033512675398170437 0.005428428120741657
90297620 -0.0003217947350566552 0.005404336172465924
90327382 -0.00024308159342452444 0.005360794666453007
90357144 -0.0002682914655275025 0.00530618726062121
90386906 -0.00019477219514389148 0.005265485700540476
90416668 -0.0003543820170168721 0.005201219700065698
90446430 -0.00018812679439987164 0.0051673318923427585
90476192 -0.00011412621115257014 0.00512028342860348
90505954 -8.86042744000025e-05 0.005073579908336043
90535716 -0.00011096631949630431 0.005023455807218972
90565478 -3.0735653880954905e-05 0.004996634978212684
90595240 -3.83690088069973e-05 0.005002007736109905
90625002 7.478189189061919e-06 0.005003585364792988
90654764 9.16089908236796e-05 0.005011947017875944
90684526 0.00013916507220743406 0.005013594329725052
90714288 0.00013549993593700346 0.005013374038283591
90744050 0.0001820375380287333 0.005015973481983316
90773812 0.00026710489865469487 0.005017528310252389
90803574 0.00026860995822781627 0.0050185907881415215
90833336 0.0003579504538073869 0.005017916218342083
90863098 0.00038472666420394776 0.004984370935017211
90892860 0.0003677801864530499 0.00495653222237143
90922622 0.00043945216423531855 0.004921173100925646
90952384 0.00046073321826180393 0.004892306266282992
90982146 0.0004560512526422916 0.004861728603293684
91011908 0.0005133945216574012 0.0048277035487936295
91041670 0.0005028421717733715 0.0047952932965975095
91071432 0.0005264911830591945 0.004761115681101054
91101194 0.0004381470599770783 0.004728123320506372
91130956 0.0005930607234247305 0.004736595644097986
91160718 0.0005469500996564858 0.004759610209922212
91190480 0.0005333214536693073 0.004781723181500373
91220242 0.00040651402967141655 0.00479916403148917
91250004 0.0005029174729739728 0.004823657228211429
91279766 0.00037901453907596524 0.004841081200304885
91309528 0.0005179584624653533 0.004867119420192173
91339290 0.0004666044728539759 0.004886326538075094
91369052 0.0004889972870790677 0.004905129741551283
91398814 0.00033320609002555494 0.004903585389136647
91428576 0.0004546793803077139 0.004874709677871465
91458338 0.0005022807445572817 0.00484472208740478
91488100 0.0005252232753287839 0.004801385251737197
91517862 0.000485837644547808 0.004773128979785839
91547624 0.0005406799671196776 0.004746978493411355
91577386 0.0005496383712779967 0.004711825014808442
91607148 0.0005291505390428143 0.004676567238993397
91636910 0.0005426807495748587 0.004646679932274526
91666672 0.000586355433764491 0.004612240567247884
91696434 0.0006345434230680117 0.004597484266708666
91726196 0.0007432052217713076 0.004585834147713451
91755958 0.0008227144143619699 0.004566420300565282
91785720 0.000866413935945886 0.004551841090921574
91815482 0.0009744670194847274 0.004526346837614221
91845244 0.0010542201973120248 0.004499923739943656
91875006 0.0011002737352659889 0.00447413008711161
91904768 0.001079771341322931 0.004454499965834454
91934530 0.0012543193675782353 0.004415467921532172
91964292 0.0012925087783935728 0.0044017695984981935
91994054 0.0013394688868324097 0.004402157621372842
92023816 0.001236865132881985 0.004405562763597189
92053578 0.0013469826946573098 0.004402798002150516
92083340 0.0013705413607058923 0.004396302076194403
92113102 0.0014201743941490259 0.004388554307662133
92142864 0.0014124901020245602 0.004389091134978238
92172626 0.001456241840809544 0.004383430412963017
92202388 0.0013638137416083975 0.004382784771661712
92232150 0.0014640066798034658 0.004350326458088393
92261912 0.001362749279818254 0.0042992455999484105
92291674 0.0014661870417721464 0.004221856698438753
92321436 0.0014297709170127786 0.004164627124966657
92351198 0.00144338415992418 0.004101342331988667
92380960 0.0014085675312108332 0.004040188502450448
92410722 0.001399329670296081 0.0039808513130411526
92440484 0.001419829393914195 0.003919356797676213
92470246 0.0014155601556668383 0.003853027138963818
92500008 0.0013839138811190515 0.003792959631904857
92529770 0.0014003514924367778 0.0037789565869044725
92559532 0.001446282756820642 0.0037637825823409
92589294 0.0014413320509902787 0.0037490724122590316
92619056 0.0014835737773093356 0.0037311673254056283
92648818 0.0015036124826152636 0.0037091813694552916
92678580 0.0015033031066471903 0.003693266055609006
92708342 0.0015474744787669652 0.0036766537462082126
92738104 0.0015699586232414495 0.0036512146559591263
92767866 0.0015693809868265593 0.003631770924454268
92797628 0.001629246058366829 0.003591391496408569
92827390 0.0016383884350805028 0.0035438419460791354
92857152 0.0016842462146844824 0.00349841945876206
92886914 0.0016570118154625201 0.0034597493004715303
92916676 0.001781148287262635 0.0033983562676304065
92946438 0.0017976491697101486 0.0033513971795020876
92976200 0.0018409446920642728 0.0032934957187473524
93005962 0.001813501617943287 0.0032370123659399693
93035724 0.0019164554756633302 0.0031322070191524675
93065486 0.0019068350005932088 0.0031117432520640313
93095248 0.0020336311629086286 0.0030059530401794383
93125010 0.002077521781921713 0.00291226643905914
93154772 0.0021452481939352253 0.0028194143859811985
93184534 0.002118808371130834 0.0027440992222555038
93214296 0.002222486983841523 0.0026313281412973185
93244058 0.0022107047998657305 0.002548474189715791
93273820 0.002299836510555768 0.0024284872897732865
93303582 0.0023235866306827663 0.002319209688621163
93333344 0.0023655579016864854 0.0022008862943187534
93363106 0.0023494637812746817 0.0021477865683449016
93392868 0.0023169046183573482 0.0021084517571995187
93422630 0.002292641583273256 0.0020589702419464223
93452392 0.002280556596002873 0.0019964420483400826
93482154 0.0022390820527863706 0.0019407343667462518
93511916 0.002234162817138818 0.0018751771678815299
93541678 0.0021853348404049706 0.0018150731493273722
93571440 0.0021570465364139507 0.0017475589325368348
93601202 0.002143669255366045 0.0016772705183506207
93630964 0.0021343758871710515 0.0015847340362697138
93660726 0.002127517261275925 0.0014737816603815597
93690488 0.0021391542056694453 0.001346337948264074
93720250 0.0021040635385946955 0.0012446654483097698
93750012 0.0021012823371944303 0.0011309977749204714
93779774 0.002086944906812105 0.000998745391392396
93809536 0.0020546822558328588 0.0008942744874553695
93839298 0.0020281665474075963 0.0007486808778313809
93869060 0.001985332851593659 0.0006327247556591705
93898822 0.0019492213864498158 0.0005104835187835541
93928584 0.0018953797311593444 0.00040043010975250967
93958346 0.001831554831962608 0.00028675282541289844
93988108 0.0017885828519254474 0.00020357185007749502
94017870 0.0017101462494087964 6.801421816192406e-05
94047632 0.001638028547674099 -2.2466510524673993e-05
94077394 0.0015604027299521886 -0.00015222769158119916
94107156 0.0014757641345192858 -0.00025342747179441975
94136918 0.0013802250251804319 -0.0003777459959777282
94166680 0.0012956942269515593 -0.00046121519873253293
94196442 0.0012641827307768366 -0.0005923096942592983
94226204 0.0012488377977040116 -0.0007032325973582691
94255966 0.001178662153138274 -0.000845803764472107
94285728 0.0011668630496790135 -0.0010003670540613347
94315490 0.001083192223754452 -0.0011484694000644072
94345252 0.0010384644462023765 -0.0013578755459368274
94375014 0.0009727484150388441 -0.001575859472134092
94404776 0.000885110740525561 -0.0018365280627037097
94434538 0.0008203570355704271 -0.0021094850340020745
94464300 0.0005704052948323976 -0.002219023569126146
94494062 0.0002785176101661091 -0.0021750542080251167
94523824 4.779266096951552e-05 -0.0021687140279322784
94553586 -0.00017155836833363157 -0.0021273322990746895
94583348 -0.00038560385993059607 -0.0020941702334197924
94613110 -0.0005503001930879563 -0.0020343280822909555
94642872 -0.0007047228765350167 -0.00198297934056572
94672634 -0.0008700998173267224 -0.001913734742218512
94702396 -0.0010120835857031878 -0.0018655096213146738
94732158 -0.0011451035943701989 -0.0018038201772414178
94761920 -0.001284572924275981 -0.0018105695803011957
94791682 -0.0014046895075173883 -0.0018415390547886152
94821444 -0.001605288925867877 -0.001782953140364657
94851206 -0.0017351116569911441 -0.0018193708329051035
94880968 -0.0018692835364051712 -0.0017516600202049587
94910730 -0.0020307768510619177 -0.0017298753021532014
94940492 -0.002155766316075073 -0.0016567245630330109
94970254 -0.002271282417675294 -0.0016538665069853256
95000016 -0.0024106451505719094 -0.0015569516479325737
95029778 -0.0025524129297184077 -0.0015936304419587515
95059540 -0.0027144256979510176 -0.0015458428401478484
95089302 -0.002860926306089631 -0.0015079956163695802
95119064 -0.0030083479701441007 -0.0014518830541400886
95148826 -0.0031276081370395434 -0.0014865669675546483
95178588 -0.0032900455987440735 -0.001409470622792773
95208350 -0.0034165989535649747 -0.0013618737704985235
95238112 -0.0035637099182327125 -0.001300368381803095
95267874 -0.003684943527236022 -0.0012654751987318251
95297636 -0.0038400622019977904 -0.0011828570799269718
95327398 -0.00393828950559921 -0.0011300707291510446
95357160 -0.0040448031803830276 -0.0010667934282381207
95386922 -0.004164323835808537 -0.0009469576999656265
95416684 -0.004264027215098454 -0.0009026810848229807
95446446 -0.00434485705386632 -0.0008332379746452316
95476208 -0.004463137889467548 -0.0007290109580855277
95505970 -0.004563011175511901 -0.0006654670149013245
95535732 -0.004645226631639756 -0.0005724461900543097
95565494 -0.004722020893221855 -0.00047010996527262027
95595256 -0.004812224096817215 -0.00036008627726247423
95625018 -0.004884661886465674 -0.0002494486618226266
95654780 -0.004966632248826155 -0.00013321238651829473
95684542 -0.005025559013862624 -7.223920554345465e-06
95714304 -0.005097302715812548 0.00010398907921723107
95744066 -0.005148213522522287 0.00022202370701863736
95773828 -0.005213160313143188 0.00031991077018105556
95803590 -0.005261170637023279 0.0004484617188029632
95833352 -0.005322777138919551 0.0005693348043263269
95863114 -0.005297712234686338 0.0006830152720373372
95892876 -0.005302024033945217 0.0007837288445761577
95922638 -0.005314660419349422 0.0008776002522544901
95952400 -0.005297256584653031 0.0009588065497285012
95982162 -0.00529374558577899 0.0010572609461248755
96011924 -0.005890996496021142 0.00015512296514874307
96041686 -0.005593626591672862 0.0009099820154591669
96071448 -0.0052431507959510805 0.00129735397222742
96101210 -0.005227553897831896 0.0013758861877474205
96130972 -0.005925244455581104 0.00055655723374629
96160734 -0.005265105576708675 0.0015362039401023242
96190496 -0.005591184344809187 0.0014662996669757456
96220258 -0.005323215095197595 0.0016922379389594181
96250020 -0.0053717750018609295 0.0017521601367539068
96279782 -0.005388840982113576 0.0018186628759019425
96309544 -0.00539319723366135 0.0019041366032376468
96339306 -0.005508456647392296 0.001916491693316461
96369068 -0.005447848786795132 0.002035597285983353
96398830 -0.005464448640061466 0.002127235305725911
96428592 -0.0054744399680949785 0.002211886789041452
96458354 -0.0054941821385726 0.0023125955831220105
96488116 -0.004742438206603525 0.0029986521296903428
96517878 -0.0055212047752062395 0.0025066213561347568
96547640 -0.005859161716328046 0.0024900319607704985
96577402 -0.0055415804536064085 0.0026821904925153016
96607164 -0.005535608748264804 0.002772147371496164
96636926 -0.004730774964541918 0.0033844576779995176
96666688 -0.005534509111614025 0.002954376826235099
96696450 -0.005506718694347585 0.002965173704437377
96726212 -0.005462579546276477 0.0029643746346668257
96755974 -0.006285129304736529 0.002364583176189548
96785736 -0.00537615218620484 0.0030072343657225093
96815498 -0.006198075813907427 0.0024280254141966972
96845260 -0.005306785590677575 0.003009284897079176
96875022 -0.005256304815894784 0.0030387760488173217
96904784 -0.005232344405079732 0.0030284473150722717
96934546 -0.005129224131842819 0.003076453057445214
96964308 -0.005173179263660393 0.0030612758780849242
96994070 -0.005172921562870688 0.0030732279317147275
97023832 -0.004440128686096831 0.0034955224997790285
97053594 -0.005208280820384359 0.0030892684087463133
97083356 -0.005241020062091179 0.003082608508032319
97113118 -0.006042808379012592 0.0025747509094237214
97142880 -0.005242505184247808 0.0031003817426813224
97172642 -0.004512318592465453 0.0035134031648082977
97202404 -0.005282273202890702 0.003086052632269444
97232166 -0.005265957014175601 0.0031175700788121114
97261928 -0.00527453863734406 0.0031586464516684233
97291690 -0.00523968688249875 0.0032307768571425872
97321452 -0.005216221595095007 0.0032862782581103023
97351214 -0.005232128855732823 0.0033239035139102533
97380976 -0.005211555107008521 0.0033828462134883838
97410738 -0.005174714734389763 0.003452349701256545
97440500 -0.005158205094911156 0.003499876791256227
97470262 -0.004387428293982929 0.003906027020591519
97500024 -0.005125382042196587 0.003609336433013505
97529786 -0.005158995157752969 0.0036419565926977173
97559548 -0.004358808333278543 0.004038621985520411
97589310 -0.005113816126245283 0.0037615084544331038
97619072 -0.005025544901982032 0.003856299396677641
97648834 -0.005142639838247652 0.003842281270718302
97678596 -0.0051182943851460485 0.003912425676971598
97708358 -0.004333758866806489 0.004281307723614556
97738120 -0.005100954950762655 0.004012593903333373
97767882 -0.005095882609631426 0.004060643476404782
97797644 -0.005853927220333439 0.0037651860142253377
97827406 -0.004993943294962919 0.00415296670731852
97857168 -0.004881126959414138 0.004207471646310974
97886930 -0.004798424456075579 0.004243670287679591
97916692 -0.005474443960992328 0.003983578849959502
97946454 -0.004640957800194526 0.004314386880887649
97976216 -0.0052920167944257145 0.004065026955175722
98005978 -0.003796484135284446 0.004605936738477169
98035740 -0.004406868295147882 0.0044096571108759195
98065502 -0.00441455273330377 0.004418552872815368
98095264 -0.004482091295934373 0.004441521109969817
98125026 -0.004523063547829822 0.004469799486436514
98154788 -0.003883229891874284 0.0047253057062701396
98184550 -0.004666790407605065 0.00451557447630044
98214312 -0.004728230841976987 0.004533978783615678
98244074 -0.004078941126154749 0.0047790915191385985
98273836 -0.004923464096499625 0.004553879025569682
98303598 -0.004963264442597109 0.004570645819351572
98333360 -0.0050415356517870226 0.004578658752325815
98363122 -0.005071198127524926 0.004545469867441253
98392884 -0.005008616249350594 0.0045528950220156215
98422646 -0.005034608776246802 0.0045237245644999076
98452408 -0.005015660198962206 0.004495995249429612
98482170 -0.004950226514427976 0.0045037067494641024
98511932 -0.004980139334268254 0.0044671240948525965
98541694 -0.004184688449264473 0.004711573363308978
98571456 -0.004894645761500243 0.004449215673287833
98601218 -0.005611041990081227 0.004154084776533266
98630980 -0.004837521676299366 0.004457898941519523
98660742 -0.00478396260820664 0.0045099443991477705
98690504 -0.004021094247757555 0.004765464727192308
98720266 -0.0054152175751476855 0.004353341789066907
98750028 -0.004639119800598084 0.004647267928919797
98779790 -0.004592048094157688 0.004682842494649906
98809552 -0.004587031850387287 0.004712509012399929
98839314 -0.004490382122974994 0.004767768133544004
98869076 -0.004483442098741334 0.004800159013251329
98898838 -0.00512126104571028 0.004655433405129404
98928600 -0.004419784271762724 0.00486411507461768
98958362 -0.00514716044494833 0.004697718146824093
98988124 -0.004503535548756977 0.004891634589523283
99017886 -0.004461353461838956 0.004923581192738389
99047648 -0.004531308062956716 0.0049261888855654775
99077410 -0.0044880880798117365 0.004967337385823313
99107172 -0.004503572069503565 0.004977330872320936
99136934 -0.004570227614872004 0.004978821193335336
99166696 -0.004581879935432046 0.0049985000998838775
99196458 -0.004544610606636838 0.004997661386327893
99226220 -0.00454074116294672 0.00498772977274136
99255982 -0.004598943805347636 0.004947369071797708
99285744 -0.004545607379267498 0.004936022112294069
99315506 -0.004600188444501317 0.004905570309015254
99345268 -0.00460181837931219 0.004879795491786582
99375030 -0.004546288461340766 0.004880632584406381
99404792 -0.004607336707123954 0.004841708372704066
99434554 -0.004607886426664486 0.004825636237868011
99464316 -0.004504654875657503 0.004872256636506141
99494078 -0.004476284669004509 0.0049128989644238565
99523840 -0.004343280574600386 0.00498532309448432
99553602 -0.004258631068343248 0.0050359401477463725
99583364 -0.004811026344049431 0.004948125528522969
99613126 -0.003433890231205498 0.0052900260668699356
99642888 -0.004015873999556621 0.005191956384364074
99672650 -0.0039391993013076455 0.005244125315307097
99702412 -0.0044540268278520385 0.005160619328942959
99732174 -0.0038059352707314436 0.005305402663092947
99761936 -0.0036793381594337434 0.005317529971048651
99791698 -0.003940616580240472 0.005254515338247067
99821460 -0.003926810239343537 0.005234116185674703
99851222 -0.004036870445492567 0.005197259851989114
99880984 -0.004618186784243783 0.005051857104867514
99910746 -0.004044914707771181 0.005150423573278198
99940508 -0.004700200014453155 0.004980942591416114
99970270 -0.004117458171974197 0.005085928370784887
100000032 -0.004164137007408658 0.005073733824242514
100029794 -0.004139279615129197 0.005070360006013314
100059556 -0.004119276134894161 0.005082908840864384
100089318 -0.004112299210082021 0.00508398180910728
100119080 -0.004102969368295632 0.005081783474139831
100148842 -0.004079271557970005 0.005103009937535258
100178604 -0.004064503913858782 0.005118557486405051
100208366 -0.004049511398557013 0.00512382468116521
100238128 -0.004029276158487558 0.005135838395187709
100267890 -0.0040123498249918475 0.005142475048415399
100297652 -0.004007568193489969 0.0051473759882274366
100327414 -0.004006825190703606 0.005157693608975077
100357176 -0.0040079707313624485 0.005158866194484135
100386938 -0.004009972757622672 0.005166299798894266
100416700 -0.004016489283009384 0.005168567728063999
100446462 -0.004019606389872026 0.005176083103405508
100476224 -0.004024808400328557 0.005177901322688658
100505986 -0.004012677379139241 0.005190463785214916
100535748 -0.004020548395883229 0.0051869650972079994
100565510 -0.004031895017170472 0.0052028549154150856
100595272 -0.004090820262402625 0.00524097764598538
100625034 -0.004122924569468692 0.0052789839135191224
100654796 -0.004182797821985772 0.005328048704178435
100684558 -0.004231450143879995 0.005370825939226874
100714320 -0.004279845055754973 0.005397407713421434
100744082 -0.004328739010562669 0.00544019683698166
100773844 -0.004386059817449965 0.005487380037215862
100803606 -0.004436639614634163 0.0055228093797801
100833368 -0.004503377712290534 0.005568627178569901
100863130 -0.004633493750571845 0.005526059156473456
100892892 -0.004397109482689118 0.005540972744941365
100922654 -0.004342297838250723 0.005532583592201172
100952416 -0.00428782847969638 0.0055148014030784835
100982178 -0.004234053844050007 0.005509143883510536
101011940 -0.004189032720450991 0.0054982410810477745
101041702 -0.004137604338537493 0.005487260525760676
101071464 -0.004091501019698547 0.0054664701625132045
101101226 -0.004035938746493887 0.005468522279501598
101130988 -0.004026540646116221 0.005453807548409726
101160750 -0.004033018394708876 0.005452988947452686
101190512 -0.004029888395582206 0.005441728867469024
101220274 -0.004034231972425952 0.005432611190054327
101250036 -0.004050609466597695 0.005429247429008988
101279798 -0.004051648828986471 0.0054272458181184365
101309560 -0.0040516477236438725 0.005415684636148898
101339322 -0.004055692577744486 0.005404825484655871
101369084 -0.00405630276693013 0.0054074392241782576
101398846 -0.00404549621125496 0.005419337169467397
101428608 -0.003987404029327408 0.0054761195716762955
101458370 -0.003922092729468052 0.00553492912877833
101488132 -0.0038653055766205502 0.0055901634130881735
101517894 -0.00380588667752712 0.005632103448480442
101547656 -0.00374468804972084 0.00567917158230067
101577418 -0.0036703488813968625 0.0057625928288148895
101607180 -0.0040467078371415844 0.005817347052851823
101636942 -0.003534976907760276 0.005858105569936278
101666704 -0.0034685767930799677 0.005910826392789471
101696466 -0.0035656972194370354 0.005864375211896985
101726228 -0.00366170462950226 0.005820389806005939
101755990 -0.003743879778188218 0.005764055863265153
101785752 -0.0038380719071283266 0.00571064805743464
101815514 -0.003936203426852989 0.00564591036549988
101845276 -0.004018044795419297 0.00558556250880379
101875038 -0.00409965270391876 0.005523489735409381
101904800 -0.004179194254432804 0.005442607972596656
101934562 -0.0042584324424013685 0.005375819367290858
101964324 -0.0042346696843271 0.005383104592284819
101994086 -0.0041499480457809455 0.0054288951266791485
102023848 -0.0040624989298348405 0.005481732202692783
102053610 -0.003985646257121823 0.005525860655594226
102083372 -0.0038877638406600384 0.005560620080587442
102113134 -0.0038139922823529184 0.005588300847309567
102142896 -0.0037250613748109466 0.005630599803427932
102172658 -0.0036411162910057965 0.005663812150256249
102202420 -0.0035496834839111 0.005692979077218612
102232182 -0.0035120110613440446 0.005721805772391029
102261944 -0.003836315005166075 0.005835765768878729
102291706 -0.0036935661257587148 0.005774787477548063
102321468 -0.003781579674851998 0.00580164484293315
102351230 -0.0038810407765375965 0.005820079138189056
102380992 -0.0039702264972752395 0.005847914104601382
102410754 -0.004070456286853675 0.005872763236258196
102440516 -0.004170939144315826 0.005882201926292371
102470278 -0.004268506694693246 0.005895791803910446
102500040 -0.004375842513572049 0.0059247994339560114
102529802 -0.004324950857674049 0.005937957367675798
102559564 -0.0042717441642414955 0.005951290378289901
102589326 -0.004207076225314657 0.005957834835572079
102619088 -0.00415992360439407 0.005970513500289876
102648850 -0.004108034643099785 0.0059887412281031185
102678612 -0.004047612460667522 0.006000490559162677
102708374 -0.003993836990456022 0.006018939526484793
102738136 -0.003936661326252478 0.006027551969449902
102767898 -0.0038938128068532907 0.006038232526675045
102797660 -0.003857169112318809 0.0060160049255679705
102827422 -0.0038546498290838106 0.00599595409021368
102857184 -0.003837578318085236 0.005964786645433928
102886946 -0.0038333511848514796 0.005930764928956661
102916708 -0.0038197294815266753 0.005910669856882423
102946470 -0.003810460819833323 0.005871463442022423
102976232 -0.003793550441501716 0.0058419761736111025
103005994 -0.0037918557782759595 0.005817096192398648
103035756 -0.003775428916820986 0.005785462413186985
103065518 -0.0037742848134706105 0.005769968907230424
103095280 -0.003773072025674365 0.005804169743209399
103125042 -0.003776036533753174 0.005825536880417713
103154804 -0.003779260548685962 0.005853428549135888
103184566 -0.0037794851438181774 0.005874606202959259
103214328 -0.0037851391392173086 0.005900569451939134
103244090 -0.0037886572074259384 0.00593265643987267
103273852 -0.003783479466828095 0.0059581654967187534
103303614 -0.0037900252626694316 0.005977460712381422
103333376 -0.0037853838274049196 0.006006539346080415
103363138 -0.0037058284187531996 0.00599886520049144
103392900 -0.003619183684054716 0.005997784516552859
103422662 -0.0035360897555509556 0.005985916051940532
103452424 -0.0034566994909380824 0.005977391033420188
103482186 -0.0033698452407349344 0.005971237978566722
103511948 -0.003286822011557334 0.005959263054674342
103541710 -0.003203613475051785 0.005944340476000374
103571472 -0.003138897987362962 0.005928805239301057
103601234 -0.0030559684724305006 0.0059118570233954474
103630996 -0.0030630968982560598 0.005908829713408781
103660758 -0.003110599270316981 0.005895132064413303
103690520 -0.0031547692060726064 0.005895611970637157
103720282 -0.0031995211647642564 0.005892095854326362
103750044 -0.003246231818173702 0.005883536031119899
103779806 -0.0032994318100941283 0.005868969923408424
103809568 -0.003345227026420127 0.005861433468565978
103839330 -0.003392607075159707 0.005851982733708786
103869092 -0.0034432033664517797 0.005838560324078022
103898854 -0.003483535624444071 0.005837612229097401
103928616 -0.0035269022050371307 0.005861367232788423
103958378 -0.003568280640343461 0.005883184070967887
103988140 -0.003616268532707549 0.005903869666500497
104017902 -0.0036446563206817195 0.005934114306574273
104047664 -0.0036906643947008048 0.005948436907745695
104077426 -0.0037355445935559253 0.00597546195323502
104107188 -0.0037813016512614705 0.00599121253089243
104136950 -0.0038216466938045144 0.006015601673016465
104166712 -0.0038746136042660953 0.006032669288382129
104196474 -0.0038640352381794033 0.006075217903850168
104226236 -0.0038488892100917655 0.006117127329022928
104255998 -0.003834920986072369 0.006165455296599921
104285760 -0.0038222888351511822 0.006206577254165331
104315522 -0.003816476016995153 0.006244260746851853
104345284 -0.003795732389798718 0.006292231850920367
104375046 -0.003779652611390945 0.00633378314427794
104404808 -0.003774455190498775 0.006383453437995534
104434570 -0.003755262550776468 0.006429015894798611
104464332 -0.0037498066669196042 0.0064023195901938895
104494094 -0.0037491016654361566 0.006344117063032261
104523856 -0.0037358090178585966 0.006290813650965199
104553618 -0.0037356347841449146 0.006237668537119116
104583380 -0.00372333018143434 0.006172668355158448
104613142 -0.0037190029808087605 0.006115690571051304
104642904 -0.003713943938622271 0.006064312608388617
104672666 -0.0037020991923472964 0.0060133248538442275
104702428 -0.0036972181332194302 0.005952851835912098
104732190 -0.0036807503547901118 0.005948533555907982
104761952 -0.0036619346423810263 0.0060173487189443525
104791714 -0.003644436699673986 0.006082303438550051
104821476 -0.003625055463252998 0.006156782625302925
104851238 -0.003612558805502053 0.006231521676256672
104881000 -0.0035899816301349814 0.006295954722360029
104910762 -0.0035610712937049066 0.006367505871616302
104940524 -0.0035350089994859 0.006444241700580524
104970286 -0.0035165098481242645 0.006527289420168393
105000048 -0.0034800531341047268 0.006595088517935185
