# HZ S RI R 50
90000000 -0.0001845557520086479 0.005180181097807412
90029762 -0.00014515662456440252 0.005207058016464688
90059524 -0.000362109598437067 0.005220900581865399
90089286 -0.00022665542285852533 0.005258587570613886
90119048 -0.00039142564251106094 0.005275119140106808
90148810 -0.00025675757308730437 0.005313796632534329
90178572 -0.0004748424872946057 0.005345247368399839
90208334 -0.00024117281567716798 0.0053741112599555154
90238096 -0.0004592124840901954 0.005379467021009696
90267858 -0.0003245218802062984 0.005424259498419032
90297620 -0.00031262707266596824 0.005395607312344995
90327382 -0.00038772793770057044 0.0053553558652950075
90357144 -0.0002550222666204958 0.005301260834686486
90386906 -0.00018038330303562003 0.005256426087259732
90416668 -0.0003459939983502322 0.005194510194405346
90446430 -0.00017408414523399936 0.005153316552138235
90476192 -0.00034603815363901374 0.005120907118228059
90505954 -8.02434963812642e-05 0.00506446285471284
90535716 -9.730080190431599e-05 0.005015189744155033
90565478 -2.650695603331978e-05 0.00498634919131301
90595240 -2.629003071053236e-05 0.004979235703271757
90625002 1.5564395732225986e-05 0.004993660042728243
90654764 0.00010421520464433309 0.0050018096914768665
90684526 0.0001458821617017704 0.0050020885916689855
90714288 0.00014724358346769476 0.005002075177259531
90744050 0.00019486248455103384 0.005005859766472239
90773812 0.0002774098910212632 0.0050068372756395035
90803574 0.00027789346890855 0.005005338765612934
90833336 0.00017708867956334944 0.005028867132330025
90863098 0.0003915449932150901 0.0049779542123220616
90892860 0.00037893018554471304 0.004938021483225763
90922622 0.00044576370235673387 0.004910588428481829
90952384 0.00047232736386894017 0.004882103494816716
90982146 0.00046072285518694643 0.004843492869159596
91011908 0.000528228003656089 0.004818292260031165
91041670 0.000510471003173123 0.004782980873515089
91071432 0.0005412560495420384 0.004750959407487996
91101194 0.0004492922372508397 0.004707693575735558
91130956 0.0006046600846621352 0.004723338395123655
91160718 0.000553774655308394 0.0047459433569596605
91190480 0.0005417466019500213 0.004766672828090395
91220242 0.0004170621592578888 0.004786763314497557
91250004 0.0005162314570093522 0.0048089609701582325
91279766 0.0003889786202368099 0.00482464926148169
91309528 0.0003436938869436639 0.004857437646988812
91339290 0.0004771235622451035 0.004870933030033283
91369052 0.0005040329888054132 0.004886821730849836
91398814 0.000345790977843172 0.004881952324251584
91428576 0.00046713137865712944 0.004858632548120334
91458338 0.000517021295197782 0.004823734864815841
91488100 0.0004890785136352141 0.004791163685069236
91517862 0.000499181284936238 0.004760025046404219
91547624 0.0005503446032438762 0.004725048877855313
91577386 0.00042414062773306295 0.0047024769673625335
91607148 0.0005401341704266469 0.004661820006789568
91636910 0.0005505771753898481 0.004621853533003164
91666672 0.0006007406694827577 0.004594842141451992
91696434 0.0006387691762701569 0.004577286744772334
91726196 0.0007552954746653521 0.004560439522286353
91755958 0.0008307193374312944 0.0045448875153341626
91785720 0.0008742909947038048 0.004523292660553751
91815482 0.0009818313813725918 0.004500708291841826
91845244 0.0010593065816563683 0.004479970581963762
91875006 0.0011121498791927073 0.004431721442300048
91904768 0.0010910066630885628 0.004426985112610018
91934530 0.0012610061647758306 0.0043918406176932075
91964292 0.0011245925998868943 0.004409443356559585
91994054 0.0013496013493009855 0.0043730921687552046
92023816 0.0012476360234956606 0.004378941791428518
92053578 0.001356239664506279 0.004372668745331908
92083340 0.0013795904811856631 0.0043650479948501245
92113102 0.001435284549184059 0.00435544905403586
92142864 0.0014212278816066223 0.004356097558218603
92172626 0.0014716296640916212 0.004356987238839392
92202388 0.0013701797030188083 0.004352026136801183
92232150 0.0014723014055048433 0.004321089994316576
92261912 0.0013707341168884908 0.004266855448441195
92291674 0.0014791157187685174 0.0041918435250304425
92321436 0.0014349606155339791 0.004133871663031406
92351198 0.00145471991047564 0.0040689722514121035
92380960 0.0014179981956843565 0.004009797606257738
92410722 0.001404109140795653 0.003945869066699925
92440484 0.0014275805049468757 0.003881746896730776
92470246 0.0014139607277149143 0.003827752562942846
92500008 0.0013830283194913083 0.003757449081547954
92529770 0.0014039018275365323 0.003744302909998066
92559532 0.00144946291972845 0.0037318584402886846
92589294 0.0014373207732610498 0.003716417113147337
92619056 0.0014913922277263035 0.0036916054497467643
92648818 0.0015101891417464283 0.0036745895447946137
92678580 0.0015093168466247353 0.0036592652968943855
92708342 0.00155193314928341 0.003637571569798524
92738104 0.0015870062401187107 0.0036012817479734614
92767866 0.0015730369624324043 0.003595976824012294
92797628 0.001633047538853461 0.003553456800594102
92827390 0.0016440427881835112 0.003506441543760031
92857152 0.0016789366601463328 0.0034576662856634186
92886914 0.0016577214479338391 0.0034201762111739525
92916676 0.0017885908198327725 0.003346478898326312
92946438 0.0018037509822933868 0.003300560645263647
92976200 0.0018351721497456895 0.003250948452013105
93005962 0.0017956234334583873 0.0032141344698569966
93035724 0.001902687635692743 0.003139932313936617
93065486 0.00143914587318743 0.0034758062848519486
93095248 0.002019575387425973 0.0029793748322878297
93125010 0.0020558781203928265 0.0029034761103948394
93154772 0.0021276408649967354 0.0027938734386948488
93184534 0.002098467844507817 0.002724843803626442
93214296 0.0021979687085803795 0.0026073147721141178
93244058 0.002187867390152344 0.0025290530287089196
93273820 0.00227584177294593 0.0024065870788243823
93303582 0.0023110845465924377 0.0022950947644997254
93333344 0.0023490550238540837 0.0021772562682907475
93363106 0.0023262383469754744 0.002132564429093908
93392868 0.0022848535982310987 0.002090074509725924
93422630 0.002256208902426722 0.0020382585727841632
93452392 0.0022614903473407136 0.0019714790594913727
93482154 0.002213033619566114 0.0019175293936118903
93511916 0.002181809674032293 0.001858406362677028
93541678 0.002174463015290215 0.0017979690964092217
93571440 0.0021382208726006147 0.001739351402481984
93601202 0.0021191135095801634 0.0016644148486523577
93630964 0.0020970708712824506 0.0015634593515077859
93660726 0.0020996288350162654 0.001458352922553993
93690488 0.00210708204103469 0.0013360024563843342
93720250 0.0020821914221051583 0.001223014784673247
93750012 0.0020696574097326054 0.0011136959749334747
93779774 0.002058784055322992 0.0009931482862575462
93809536 0.0020216812443812006 0.0008926997384481307
93839298 0.0019942228385129005 0.0007565834751155682
93869060 0.001964389128171489 0.0006227936121220689
93898822 0.0019104751424698005 0.0005059535970576434
93928584 0.0018642180321386517 0.0004022801891290414
93958346 0.0018022868610410882 0.00027379180578990773
93988108 0.0017436173064809709 0.00019984387686533458
94017870 0.0016664618536555076 6.852060159171388e-05
94047632 0.001600178741562119 -1.22535505370744e-05
94077394 0.0015250726419135047 -0.00014710883384566747
94107156 0.001427946784389503 -0.00024826603330879216
94136918 0.0013459559816945221 -0.00034921860594303955
94166680 0.001257465160621754 -0.00044106741601945186
94196442 0.001228479223293291 -0.0005797396190844817
94226204 0.0012018968318471953 -0.0006968239350569954
94255966 0.001137223413660826 -0.000838305613138031
94285728 0.0011033283018495497 -0.000972040670184508
94315490 0.001059946893736118 -0.0011685683469241823
94345252 0.0009700605009304374 -0.0013732459018941442
94375014 0.0009198886038635988 -0.0015555052717410546
94404776 0.0008309187248733439 -0.0018137885691799232
94434538 0.0007540292225637148 -0.0020921418612477928
94464300 0.0005427780552694177 -0.0022256011119000892
94494062 0.00022997678639170635 -0.0021537787389413446
94523824 9.022189589057616e-06 -0.0021545406636358584
94553586 -0.00019585363541859178 -0.0021217541155752924
94583348 -0.000412075267879312 -0.0020571418393199327
94613110 -0.0005556802918962965 -0.0020099650018812272
94642872 -0.0007263471380434116 -0.001957729890133466
94672634 -0.0008825703363144626 -0.0018918023721581638
94702396 -0.0010155890506873702 -0.0018365484825235343
94732158 -0.0011149473057029792 -0.0017985143014910892
94761920 -0.0013002234925277702 -0.0017866090651708973
94791682 -0.0014122221942064672 -0.0018479564656390809
94821444 -0.00160557886225452 -0.001785267128125508
94851206 -0.0017223607562191774 -0.001820817719429855
94880968 -0.0018688906268712476 -0.0016944579683231533
94910730 -0.0020447828788798046 -0.0016225018760862991
94940492 -0.0021480529927299145 -0.0016949888854820815
94970254 -0.0022993483908728693 -0.0015834022859550015
95000016 -0.0023860965871671676 -0.0016189828377207289
95029778 -0.0025676896841177925 -0.0015141754029356956
95059540 -0.0026935258872979252 -0.0015984757764619336
95089302 -0.002867223466351482 -0.0014105354879470954
95119064 -0.0029766714069746555 -0.0015279169709135952
95148826 -0.0031197593698225 -0.0014640163569236526
95178588 -0.0032680837739800686 -0.001390444602936431
95208350 -0.003412840042987167 -0.001368378438849568
95238112 -0.003556703173075468 -0.0013002061521532346
95267874 -0.003684708424564417 -0.001274819824617005
95297636 -0.0038284518880059367 -0.0011867995887580595
95327398 -0.003932800311652789 -0.0011252894087476117
95357160 -0.004041613362495786 -0.0010621011750207214
95386922 -0.0041527233236454434 -0.0009643093162278195
95416684 -0.0042595712922317485 -0.000880816542746444
95446446 -0.004367991610404486 -0.0008338249143548574
95476208 -0.004434194687413814 -0.0007411149929940856
95505970 -0.0045559473324704395 -0.0006471990901588786
95535732 -0.004650219523490512 -0.0005757625700590524
95565494 -0.004719356956090653 -0.0004693468081133421
95595256 -0.004804618647171584 -0.00035161956640363624
95625018 -0.00488746497109464 -0.00023823486565878606
95654780 -0.004973701498177091 -0.0001338345035295061
95684542 -0.005036573032572762 -1.9068347790068874e-05
95714304 -0.005089686997411526 9.408189966834943e-05
95744066 -0.00515399089772381 0.00022780996836621899
95773828 -0.00522235674770564 0.0003229832678350615
95803590 -0.005254604213984862 0.0004512776494787682
95833352 -0.0053127649334313905 0.0005690148086006782
95863114 -0.005306116050972333 0.0006777957298875836
95892876 -0.00530802078876059 0.0007583468115454968
95922638 -0.005307441934424221 0.0008770620258035212
95952400 -0.005314349340517159 0.0009525280306096114
95982162 -0.005275532559709656 0.0010418873641912393
96011924 -0.005909269989664917 0.0001550417863803231
96041686 -0.005269512656011607 0.0011998965304163257
96071448 -0.005160748230561799 0.001373075496139551
96101210 -0.005227385525905123 0.0013751808365719037
96130972 -0.005940817807236131 0.0005424859312696828
96160734 -0.005270170313785031 0.0015283686905973911
96190496 -0.005310586484416862 0.0016074060146216874
96220258 -0.005532580172369023 0.0015647016177379202
96250020 -0.005361090905573824 0.001758308206222254
96279782 -0.0053859469079691955 0.0018188162216492248
96309544 -0.005228906517891154 0.00201892606205927
96339306 -0.005446417006618934 0.0019605941521390847
96369068 -0.005457207564111535 0.0020399998070599343
96398830 -0.005465373720375341 0.002117036994572894
96428592 -0.005488041034030219 0.002220838697907954
96458354 -0.005511103530143423 0.0022909785094719966
96488116 -0.004751428035096273 0.002983801108989929
96517878 -0.005516852793571055 0.0024918908761275274
96547640 -0.005531387677643728 0.002593491591331608
96577402 -0.005545030762410887 0.002669779260429722
96607164 -0.005535215947518037 0.002770070710617688
96636926 -0.00473937114137898 0.0033788650768073482
96666688 -0.0055604511272892 0.002937352222053547
96696450 -0.00551897508653431 0.0029595941865241775
96726212 -0.005474882397641339 0.002967569174947266
96755974 -0.006308444892078146 0.002358372877688074
96785736 -0.00539086780646489 0.003016938203603843
96815498 -0.006204361406121563 0.002402152391582865
96845260 -0.005301974239818144 0.0030243391399352175
96875022 -0.005261989241764203 0.003027905024396901
96904784 -0.005248954482703301 0.0030336368845576456
96934546 -0.005140195176607749 0.003082939179775342
96964308 -0.005170389998527783 0.0030583046050496536
96994070 -0.005183058363363053 0.0030722746659173415
97023832 -0.004434990238084542 0.003509202588399276
97053594 -0.005208912066604989 0.0030882719275912933
97083356 -0.005228264739445525 0.0030937836205654034
97113118 -0.006048134178596607 0.0025765084499040076
97142880 -0.005253010844690424 0.0030968385916679544
97172642 -0.004515065418782725 0.003520582356447863
97202404 -0.005290718055673862 0.0030904346513216685
97232166 -0.005274289706997624 0.003121731279909473
97261928 -0.005272229872476355 0.0031740919056866255
97291690 -0.005240681378522037 0.0032406884817538554
97321452 -0.005219788376676073 0.003278846505112712
97351214 -0.0052221378494416845 0.003334974809680194
97380976 -0.005199583286649017 0.0033849410371170614
97410738 -0.005166993367999251 0.0034497680515046046
97440500 -0.005153814586118966 0.0034981277237518017
97470262 -0.004380450965983661 0.003906255594432307
97500024 -0.005113850780160575 0.0036077396323364896
97529786 -0.005134619257519886 0.0036446239395220865
97559548 -0.004357384691478022 0.004050853681441013
97589310 -0.005099748575206902 0.003768879408684638
97619072 -0.005019339902302369 0.0038509852010645633
97648834 -0.0051288305524105045 0.0038558231649504543
97678596 -0.005094176143386918 0.003923933063751587
97708358 -0.004333224628411939 0.0042808685670751865
97738120 -0.005089283218108667 0.004020963945146325
97767882 -0.005081132332336398 0.004068642653790873
97797644 -0.0058402359440950374 0.003775382907159333
97827406 -0.004977616999775195 0.004140612794868009
97857168 -0.004863771354850406 0.0041999059621460255
97886930 -0.004776502605986742 0.004248084595366103
97916692 -0.005449965710815128 0.003984483795533376
97946454 -0.004632733089013837 0.004317164642963786
97976216 -0.005279914425793478 0.004061036444550124
98005978 -0.003783840614640109 0.004605927123982217
98035740 -0.004392276000466422 0.004413757033418541
98065502 -0.004398871515904159 0.004425382783748564
98095264 -0.004470372242954215 0.004443299992432312
98125026 -0.0045018481294135495 0.0044702583108905255
98154788 -0.0038760272176737256 0.004729206344889617
98184550 -0.004641718846036445 0.004509222892409573
98214312 -0.004711524228611082 0.004524980227690652
98244074 -0.004061755091128831 0.004785926252468137
98273836 -0.004903449333920142 0.004546811131249599
98303598 -0.004946729995501404 0.0045649543611625204
98333360 -0.00502296215927288 0.004570525519217866
98363122 -0.005046656760900857 0.004541516003439133
98392884 -0.004977781579723532 0.004540110980489697
98422646 -0.004999210839858995 0.0045072825597809755
98452408 -0.00498611872183552 0.004501322312557424
98482170 -0.004925474153268987 0.004482156737254379
98511932 -0.004942655293341659 0.004455252921617437
98541694 -0.004164795380756868 0.004691248005989471
98571456 -0.0048783428783881755 0.0044310007908556145
98601218 -0.005584133548380253 0.004139180288277706
98630980 -0.004806527227960392 0.004433524148003095
98660742 -0.004764847034739286 0.0044948417524626055
98690504 -0.004004998338495975 0.004745301216872101
98720266 -0.005388275595420896 0.004340381858511112
98750028 -0.004611738329206649 0.0046246751793638284
98779790 -0.004574579601355421 0.004661488509785764
98809552 -0.004554788094184407 0.004701645644985192
98839314 -0.0044713494106753725 0.004746505085742102
98869076 -0.004463011239349198 0.004782017425621199
98898838 -0.00509499430343077 0.004642771388133596
98928600 -0.00440840556031529 0.0048457285948225815
98958362 -0.005117523566274651 0.004669889820133146
98988124 -0.0044685153165100674 0.004858965730399619
99017886 -0.004435267295584879 0.0049057046866598265
99047648 -0.004489261503604806 0.004909126307973587
99077410 -0.0044590098029786505 0.004945442331619014
99107172 -0.004476292986761459 0.004957781015027075
99136934 -0.004543475896985186 0.004965760598438022
99166696 -0.004557999836834647 0.004980329769538873
99196458 -0.004508665074879892 0.004978111996772263
99226220 -0.004504776847320152 0.004961457117066343
99255982 -0.004561091759469232 0.004925979903173668
99285744 -0.004517152081408438 0.004914757014654616
99315506 -0.004574695148024049 0.004876875636313263
99345268 -0.004569687320712208 0.004864404627366735
99375030 -0.004519751018027244 0.0048579893390812146
99404792 -0.0043927883714048425 0.004816376170200146
99434554 -0.004582399794869259 0.004796070101404514
99464316 -0.004384665874028674 0.004863342399347296
99494078 -0.0044530496431140895 0.004885942600641623
99523840 -0.004137251942311415 0.004958637453349215
99553602 -0.003978894447066846 0.004975318693289786
99583364 -0.004779892585154961 0.004918754829440024
99613126 -0.003417260141546755 0.005260457025727645
99642888 -0.003983902948324601 0.005173972240204943
99672650 -0.0039122251048026 0.0052119073875099104
99702412 -0.004419385769011167 0.005134040950471375
99732174 -0.0037871074194598454 0.0052748290807876005
99761936 -0.0036639738530584035 0.00528684767431561
99791698 -0.003923946429115188 0.005212058700240109
99821460 -0.003911849258528607 0.005196905408088998
99851222 -0.004008587721510613 0.005155731569335599
99880984 -0.004595165298825723 0.005004893684180849
99910746 -0.0040231784831303375 0.005109037181710719
99940508 -0.0046744832497498555 0.004949006136931736
99970270 -0.004105075858834917 0.005053758119025849
100000032 -0.0041377405529900435 0.005036896778562726
100029794 -0.0041215496120146295 0.005027182850223939
100059556 -0.0041048782390405774 0.005044220289289706
100089318 -0.004087917208036009 0.005051630447959909
100119080 -0.004069585606208193 0.005055445009446436
100148842 -0.004058106949867512 0.005071687161272238
100178604 -0.004040916666829083 0.0050829928052122
100208366 -0.004026485794352969 0.005086749404912959
100238128 -0.004016557522522272 0.00509621373073261
100267890 -0.003996822915401431 0.005103839810166745
100297652 -0.003990708155753068 0.0051151867194937535
100327414 -0.004001306853414022 0.005116334846717133
100357176 -0.003996536168721596 0.00512250200454864
100386938 -0.004003530238120373 0.005119239035992804
100416700 -0.004007626341668487 0.005128369903460555
100446462 -0.004007198802833266 0.005128868376361869
100476224 -0.004003772992098497 0.005140451877907303
100505986 -0.004016486563755743 0.00514593863065364
100535748 -0.00401902052561875 0.005141126743246777
100565510 -0.004027488970560119 0.005159130869709391
100595272 -0.004079785841631764 0.0051918726512065055
100625034 -0.0041228037664919346 0.005234068647693917
100654796 -0.004175775199102958 0.00528498805566492
100684558 -0.004229854039603729 0.005322425369581088
100714320 -0.004279100820627977 0.005355701260526646
100744082 -0.004321297740410561 0.005389643389116957
100773844 -0.0043826913457385 0.0054259295424237165
100803606 -0.00443448762582866 0.005475610168894644
100833368 -0.004495490276419952 0.005507759039501133
100863130 -0.0044369127968828794 0.005501782585927847
100892892 -0.0043977115896865655 0.005481271872138161
100922654 -0.004336370603182876 0.0054765126682638395
100952416 -0.004297770923095123 0.005470610861332448
100982178 -0.004236314632932718 0.005459930106633951
101011940 -0.004186168122125858 0.005448068309775667
101041702 -0.004142400560784466 0.005442045170516549
101071464 -0.004104696767589187 0.0054261342446341836
101101226 -0.004038113339681272 0.005408408698635628
101130988 -0.004029289192912322 0.005409141004672925
101160750 -0.004035066100376852 0.005399119233416178
101190512 -0.004053375442944913 0.005395983586912856
101220274 -0.004059360634312393 0.005388526562522014
101250036 -0.004049975153400206 0.005371018150100282
101279798 -0.0040635623017048275 0.005372842459644033
101309560 -0.004064437235730011 0.005365678954737886
101339322 -0.004070212341543261 0.00536089644050305
101369084 -0.004079456569004921 0.0053480453845635946
101398846 -0.004054280574410468 0.005369583004718174
101428608 -0.00399492702705584 0.005426815498179919
101458370 -0.003946608814202751 0.005476524374976371
101488132 -0.0038801306894855267 0.005543117121790108
101517894 -0.003823248386283462 0.005600684674647682
101547656 -0.003764468153887559 0.005651356297053253
101577418 -0.003701517448129853 0.005701343968117538
101607180 -0.0036348731498401536 0.00576174230862699
101636942 -0.0035612378637942654 0.005813456717263222
101666704 -0.0034992723478225168 0.005859407545597709
101696466 -0.003592774720587825 0.005817364391400959
101726228 -0.0036947301006836552 0.005768364114015762
101755990 -0.003784241621710508 0.005720016932885592
101785752 -0.003865601277172275 0.005657509442864392
101815514 -0.003958758721855827 0.005594296277113303
101845276 -0.004041568014658498 0.005535054750022913
101875038 -0.004134592623509142 0.005461676952033576
101904800 -0.004216440401585579 0.005394799464648488
101934562 -0.004288485769374315 0.005325549069034149
101964324 -0.004259470093681083 0.0053312496786656555
101994086 -0.004178019013687018 0.005379970190243503
102023848 -0.0040926807927024805 0.005425924482985531
102053610 -0.004014384917823618 0.00546670663081213
102083372 -0.003925897306456879 0.0055041382662440455
102113134 -0.0041884852937095355 0.005566936697199082
102142896 -0.0037510983983560916 0.005582540372348429
102172658 -0.0036722697284370257 0.005613149432990069
102202420 -0.0035823580469719362 0.005641958619037403
102232182 -0.0035543389616793076 0.005678590667972064
102261944 -0.0036283324244575543 0.005702582525868435
102291706 -0.0037248460898730556 0.005728550899575291
102321468 -0.003824301088149273 0.0057491972501613675
102351230 -0.00390648982775993 0.005776599159219397
102380992 -0.004006784827793482 0.005799426316511508
102410754 -0.004193016172185025 0.005827341160744402
102440516 -0.004215692733569834 0.005834275620607684
102470278 -0.004309212983800279 0.005851288166322465
102500040 -0.004418392797570723 0.005862020210081145
102529802 -0.004362859632038389 0.005882107023539508
102559564 -0.004309494646540589 0.0058924388565206424
102589326 -0.004258848336223693 0.00591073388813617
102619088 -0.00420468217274716 0.0059279427168889166
102648850 -0.003983000808973632 0.005919212790481687
102678612 -0.0040996341706246164 0.005957753886563115
102708374 -0.004030706509399291 0.005962973649611857
102738136 -0.0039826653859639195 0.0059874502933275515
102767898 -0.00393359794901443 0.005995473197659757
102797660 -0.00346146981087009 0.005452487485161739
102827422 -0.003891123788576041 0.00594504106089439
102857184 -0.0038868762277656016 0.005915419288808811
102886946 -0.00386991394484724 0.005884425950242316
102916708 -0.003866611618398767 0.0058609677636609825
102946470 -0.0038586871861831613 0.005833277238805666
102976232 -0.003836187407352023 0.005804857667645991
103005994 -0.003834253634702693 0.005774349108544678
103035756 -0.0038250971917958366 0.005745368115439161
103065518 -0.003817171575278117 0.005736626117874451
103095280 -0.0038151341613498722 0.005769702331901809
103125042 -0.003820972407081477 0.005794492753448584
103154804 -0.0038168899835047485 0.005818260194789897
103184566 -0.003829559629437114 0.005842559134423929
103214328 -0.0038346474197344035 0.00586863144026569
103244090 -0.0038451893258957884 0.00589478838067446
103273852 -0.00383730724739055 0.005919761591143591
103303614 -0.003845193676345777 0.005946751659896148
103333376 -0.0038550588839139127 0.005974161411933509
103363138 -0.0037575562448103478 0.005971060777141811
103392900 -0.0036705131435443993 0.005965310780653265
103422662 -0.003581066888268748 0.005956781556075923
103452424 -0.003498046153031401 0.005949106273983018
103482186 -0.0034098812311105465 0.0059434862242875855
103511948 -0.0033292786708545314 0.005930257174489815
103541710 -0.00325299802701135 0.005923171230944444
103571472 -0.0031710273359231325 0.005907890874230761
103601234 -0.003098461320020305 0.005895707046382527
103630996 -0.0031032409628346616 0.005889737465779007
103660758 -0.003153040088161022 0.005881913316828024
103690520 -0.0031997108806235794 0.005875583554047567
103720282 -0.0032529544339952848 0.0058682080951726915
103750044 -0.0032970524754440075 0.0058596049609155815
103779806 -0.0033426297469826057 0.005856675890958022
103809568 -0.003392937728322126 0.005846130637773397
103839330 -0.003442596180960602 0.005831787373637892
103869092 -0.0034867918351102127 0.005817600004804688
103898854 -0.003538026296503422 0.005819003863838342
103928616 -0.0035760265496853063 0.005831419614344672
103958378 -0.003618812754061035 0.0058659019475666065
103988140 -0.0036631775612487555 0.005883098956260281
104017902 -0.0037028441760180077 0.005915022611755877
104047664 -0.0037375499615398973 0.005929554847756594
104077426 -0.0037906729475690364 0.005948875002621491
104107188 -0.0038280214040884294 0.005969190512901953
104136950 -0.003876177872866875 0.0059969823076491905
104166712 -0.003920256230659189 0.006008473245481377
104196474 -0.003913140908278399 0.0060609855873410105
104226236 -0.003896535242913918 0.0061004536288276215
104255998 -0.0038879906955294912 0.006144891962021435
104285760 -0.0038793237970006977 0.006185347249240792
104315522 -0.003871448884831563 0.006238232694273513
104345284 -0.00384866019910653 0.0062750898072570695
104375046 -0.003832560893713014 0.0063282580588242595
104404808 -0.0038264932889272574 0.006366900540246303
104434570 -0.003813827201382072 0.006415705188774665
104464332 -0.003805409955530641 0.00638597783504828
104494094 -0.0037932479282772693 0.006338708082897747
104523856 -0.003790014887678971 0.006283790604999045
104553618 -0.003779027789634876 0.006225919282150731
104583380 -0.003778653719642522 0.006166590078744242
104613142 -0.003775416455641741 0.006111721554731898
104642904 -0.0037582196178310937 0.006056345743254485
104672666 -0.0037554176042067576 0.0060027112875300995
104702428 -0.0037484850442314715 0.0059532640564932075
104732190 -0.003739380920473624 0.005943048407698238
104761952 -0.0037196976162943286 0.006012655525356191
104791714 -0.0037036131140386797 0.006082043494223439
104821476 -0.0036802224191857798 0.006148208307471978
104851238 -0.0036519632304001307 0.006227092335691176
104881000 -0.003640515576904125 0.006294659391922856
104910762 -0.0036176531533536707 0.006376130642080418
104940524 -0.0035974506996794484 0.00645360162810228
104970286 -0.003570304170331612 0.006521267344922649
105000048 -0.0035580876303925465 0.006604720626403232
