# HZ S RI R 50
90000000 -0.00016391695946388075 0.0051701112402672365
90029762 -0.00012554615206192892 0.005197482994377683
90059524 -0.0003405165161992409 0.005208733828398045
90089286 -0.00020850680256009974 0.005247771317027549
90119048 -0.00037303302263033716 0.005262915442851249
90148810 -0.0002364539699441659 0.005301420285882566
90178572 -0.00025290306601709 0.005328479010117995
90208334 -0.00021996843880456475 0.005359852797284513
90238096 -0.00043568646584576736 0.005366572565333287
90267858 -0.0003038079729675609 0.005406392183709115
90297620 -0.000292263258324476 0.005385190502566491
90327382 -0.0002147773395878692 0.005339806467022437
90357144 -0.00023345708870312572 0.005281500568776646
90386906 -0.00015839251628745103 0.005240192646216322
90416668 -0.0003247313082233789 0.005176040987820631
90446430 -0.00015398167719411424 0.005133599420815329
90476192 -8.106273809293251e-05 0.005094172360457497
90505954 -5.567033417127478e-05 0.005049220879470056
90535716 -7.420258254266233e-05 0.00500211947623681
90565478 2.793909283948483e-06 0.004971300538432412
90595240 -4.3238497358973e-06 0.004976520579769115
90625002 4.308093048261472e-05 0.004978202893003407
90654764 0.00012827272853567463 0.004981006745750709
90684526 0.00016989075270748013 0.004985557806076896
90714288 0.00016944298467700403 0.004983382850936356
90744050 0.0002136074699508111 0.004987231013934821
90773812 0.00030409704497223153 0.004985864698046979
90803574 0.0003061983293342584 0.004982100832796877
90833336 0.00039488582389811654 0.00498358814874219
90863098 0.0004168358858750535 0.0049526549391430835
90892860 0.0004039840968334438 0.00491827719399394
90922622 0.00047322371017636194 0.004889277538541029
90952384 0.0005005740788083312 0.004854784275291955
90982146 0.0004892375583519759 0.0048233625807725606
91011908 0.0005550774002371253 0.004794163644107787
91041670 0.0005410749772306347 0.0047561999568441
91071432 0.0005706953907541469 0.0047275537233305125
91101194 0.000476387024633707 0.004694937858261219
91130956 0.0006287970624312695 0.004700199461097533
91160718 0.0005852996045828438 0.004715670075390379
91190480 0.0005741045715854454 0.004741154079111125
91220242 0.00044504312869079365 0.004757334253037909
91250004 0.0005520176624145177 0.004784159474873072
91279766 0.0004208540429072958 0.004798820662144258
91309528 0.0005640975749936798 0.0048173730138837195
91339290 0.0005104830631108496 0.004840267930181088
91369052 0.0005389358648384654 0.0048597493085993735
91398814 0.00038029915362866904 0.0048530587917440336
91428576 0.0005024026662467237 0.004827958480678517
91458338 0.0005524282438364786 0.0047977839388154715
91488100 0.0005252197256219411 0.0047601967774511715
91517862 0.000541111490468977 0.004723787879714584
91547624 0.000587817790728645 0.004698660100513008
91577386 0.0006001590226762632 0.0046591997951142645
91607148 0.0005786637750461385 0.004625123024247801
91636910 0.0005917811674459677 0.0045881821186521815
91666672 0.0006342846705718291 0.004553586919518306
91696434 0.0006823456747670135 0.004543236876260572
91726196 0.0007894315162258748 0.004523498704638865
91755958 0.0008685195422462142 0.0045080563130958
91785720 0.0009133427810493777 0.004482804960587761
91815482 0.0010209056078406005 0.004460987935862731
91845244 0.0011039509418088761 0.004431349179399304
91875006 0.0011449217196426692 0.004402830638703648
91904768 0.0011252549513229878 0.004374574499195115
91934530 0.001301462504742397 0.004340392925862717
91964292 0.0013399173786237117 0.004326608306559136
91994054 0.0013886994953380696 0.004319958198945289
92023816 0.0012850218994185755 0.004327868344503029
92053578 0.0013998464887701979 0.004311259534744143
92083340 0.0014175840729509193 0.0043084364347674535
92113102 0.001473552834776509 0.004300582110074527
92142864 0.0014635556838199844 0.004299142257474541
92172626 0.0015086831632836117 0.004286852607551505
92202388 0.001417797448992527 0.004284980748655893
92232150 0.0015146407594744272 0.00425604530938906
92261912 0.0014160023956752484 0.004199006307616086
92291674 0.0015155888889039884 0.004126534065683687
92321436 0.0014798074600812327 0.00406921692152712
92351198 0.0014936922653865248 0.0039986638713478
92380960 0.0014590606287516363 0.00393803861101943
92410722 0.0014531823102055376 0.0038705928407522876
92440484 0.0014737324869988962 0.0038084086692208685
92470246 0.0014605401204352173 0.003743749410573144
92500008 0.0014361608284648966 0.0036775020365599604
92529770 0.0014518575445039144 0.0036612225872357696
92559532 0.0014982845995109714 0.0036393087525502165
92589294 0.0014933662155288878 0.00362455113069397
92619056 0.0015385321704658977 0.0036006038594887054
92648818 0.0015575500807895682 0.0035827610567954827
92678580 0.0015538622667482635 0.0035616137617528873
92708342 0.0016028920754922744 0.003533747978360581
92738104 0.0016209601175555621 0.0035031534458633525
92767866 0.0016236141574760984 0.0034843918019208785
92797628 0.0016776516231383895 0.0034391988721613996
92827390 0.001695477612498831 0.0033871778615617012
92857152 0.0017324218677580096 0.003343644734930987
92886914 0.0017132272709411824 0.0032988696875924203
92916676 0.001829048438423865 0.0032248830122032102
92946438 0.0018478124862971034 0.0031704102842429003
92976200 0.0018791131324764005 0.003109904785845094
93005962 0.0018558158101608076 0.0030636552895521875
93035724 0.0019475999704411573 0.002986180008649168
93065486 0.0019098092292705166 0.0029571951271496937
93095248 0.0020589780355659668 0.0028100748035081754
93125010 0.002092294417742695 0.0027236648410554638
93154772 0.002150694260863326 0.0026169096525411237
93184534 0.0021376514465970896 0.0025403402217030854
93214296 0.0022130933422913296 0.0024204362490340323
93244058 0.0022082765866058745 0.0023371507192615423
93273820 0.002273668270571433 0.0022062654420557234
93303582 0.0023162783781461296 0.0020946171198435175
93333344 0.0023482250726315217 0.0019723273347570236
93363106 0.002312164981551084 0.0019113550029024196
93392868 0.002271295640155662 0.0018759269981088516
93422630 0.0022512463074922354 0.0018208360232096097
93452392 0.0022300093664475904 0.0017463636657817372
93482154 0.0021967980591050588 0.0016837383571862263
93511916 0.0021758814155986416 0.0016239364457979314
93541678 0.0021298671711951537 0.0015501382552275452
93571440 0.002091549799967901 0.0014961830079227407
93601202 0.0020707164661351923 0.0014050394831160756
93630964 0.0020587917859241685 0.0013103628939374096
93660726 0.0020413546759846103 0.0011849124663538962
93690488 0.002036212314386358 0.0010691347341243423
93720250 0.001995848916358187 0.0009581044121428845
93750012 0.001975834647308418 0.0008287282771005446
93779774 0.0019556704018443994 0.0007056489834567656
93809536 0.001896274565555921 0.0006051830893729704
93839298 0.0018591711030732806 0.0004694308896491059
93869060 0.001812222900816066 0.0003385579557114898
93898822 0.0017543254801567698 0.00022252455752582717
93928584 0.0016934078272830967 0.00012840304740864103
93958346 0.0016061160340900536 -1.3738003962948465e-06
93988108 0.0015450192824948221 -8.051222247118818e-05
94017870 0.0014548180694287963 -0.00020374380162808375
94047632 0.0013807556974523066 -0.00030957283261863017
94077394 0.0012819646172615325 -0.00041309105580003146
94107156 0.0011869568559868086 -0.0005266816918516081
94136918 0.0010811778674294137 -0.0006241254989188072
94166680 0.001002196433116055 -0.0007115099416391143
94196442 0.0009361786406990518 -0.0008282308480242507
94226204 0.0009002457852334445 -0.0009784686263501444
94255966 0.0007892887752246522 -0.0011360549873402107
94285728 0.0007027198433852823 -0.0013116503462163621
94315490 0.0006190200431918136 -0.0014780968811221782
94345252 0.0005003611889351561 -0.0016747484829918407
94375014 0.0004010726114525552 -0.0019321641278873167
94404776 0.00025122765625004657 -0.002137076672905342
94434538 0.00015856370166787064 -0.00252266320647737
94464300 -9.000257584092164e-05 -0.002565338232318043
94494062 -0.00034770326781502356 -0.002450448767286954
94523824 -0.0005548975698494386 -0.0023911645253525274
94553586 -0.0007528132951815145 -0.002327737511822977
94583348 -0.0009470476312051574 -0.0022263644409215994
94613110 -0.0010897066873989363 -0.002143681921512943
94642872 -0.001251824394734335 -0.002058857498501868
94672634 -0.001356288533784302 -0.0019638052460423084
94702396 -0.0014843695624444776 -0.0018764742738718618
94732158 -0.0015855418246200333 -0.0017980263485181953
94761920 -0.00174366565672376 -0.001782671271819673
94791682 -0.0018670973766788004 -0.001805461825712256
94821444 -0.0020435593109676955 -0.0017578851160823265
94851206 -0.0021544148005652733 -0.0017355822030541137
94880968 -0.002331790505832053 -0.0016361889362158841
94910730 -0.002447123239033711 -0.0015933460914101527
94940492 -0.0025794531243033417 -0.001534688575764845
94970254 -0.002688160322685449 -0.00153160807332158
95000016 -0.0028136484389381933 -0.0014134342450582381
95029778 -0.0029331951540346557 -0.0014360113025313553
95059540 -0.003081313909343452 -0.0013660524162757144
95089302 -0.003218209907171752 -0.0013170280335889793
95119064 -0.003356198203904662 -0.0012614579823616266
95148826 -0.003499108699599948 -0.0012815970577065498
95178588 -0.0036148252895196603 -0.0011810243507045432
95208350 -0.003766266944157983 -0.0011175660073826025
95238112 -0.003891243542833955 -0.0010684307920509663
95267874 -0.004021222749680269 -0.0010207355565495276
95297636 -0.004123916999386957 -0.0009191412125850155
95327398 -0.004228642607913699 -0.0008564373345423418
95357160 -0.004317663192420623 -0.0007685552474330749
95386922 -0.004426343316643387 -0.0006836265749631455
95416684 -0.0045183796296548425 -0.0006000750137973264
95446446 -0.004612332481568841 -0.0005189094436110952
95476208 -0.0046951717567631085 -0.0004196085820734467
95505970 -0.004769250846941543 -0.00035850516263987055
95535732 -0.004836264034141955 -0.0002658190323104117
95565494 -0.0049259300278586635 -0.00015332533415537156
95595256 -0.00499245423608196 -3.715402059876217e-05
95625018 -0.0050471320762917275 6.848397415692707e-05
95654780 -0.00511744678712243 0.0001853440054111089
95684542 -0.005168979842269256 0.0003073288240425005
95714304 -0.005226288017117161 0.000414437016094788
95744066 -0.0052642307186429186 0.0005367982673770841
95773828 -0.0053276924141687715 0.00065431887868179
95803590 -0.005353283021909904 0.0007720995075519645
95833352 -0.005405264284019557 0.000879612616126177
95863114 -0.005373217054663584 0.000974291677404715
95892876 -0.005359294001384897 0.0010588052681778934
95922638 -0.005357663456664267 0.001147872346293242
95952400 -0.0053504323510979316 0.001239669535510334
95982162 -0.005316373181045629 0.0013280136592180307
96011924 -0.0059933757336476275 0.0004715350821830195
96041686 -0.005293001110165977 0.0014852944304447253
96071448 -0.005253510641182341 0.0015683845905273908
96101210 -0.005248395540150668 0.001651055573806886
96130972 -0.005962749398577961 0.0008611268829706128
96160734 -0.005278283244974148 0.0017962128784631418
96190496 -0.005307628134034646 0.0018696562135317547
96220258 -0.005329145397864919 0.0019241761149066232
96250020 -0.0055440270261474574 0.0019133807514899888
96279782 -0.005450653554943553 0.0020316128120782774
96309544 -0.005377583469343678 0.002139280058828407
96339306 -0.005200222451473595 0.0023066726982028268
96369068 -0.005416752446399337 0.002275775454737195
96398830 -0.005423021664438461 0.0023480782080896566
96428592 -0.005438630937804095 0.0024357362413218358
96458354 -0.005452566758244884 0.0025224150183606685
96488116 -0.004684813343696663 0.003148067548038638
96517878 -0.005467317725470688 0.0027046853391325585
96547640 -0.0054656677626520956 0.00279749798188668
96577402 -0.005481485774331341 0.002866990973829869
96607164 -0.005464544699730919 0.002960460456292268
96636926 -0.0046570312291965635 0.0035364937866921614
96666688 -0.005504710918136232 0.003120829569613719
96696450 -0.005426970731773309 0.003151211589031149
96726212 -0.005173700988841912 0.0031700656955087857
96755974 -0.006220323538442074 0.0025726026106795102
96785736 -0.00531255865548924 0.003172647614712177
96815498 -0.0061286028327797925 0.002615899961104994
96845260 -0.005217834629799513 0.003197688192106741
96875022 -0.005184141549568386 0.003183189329935201
96904784 -0.005159730823241804 0.0031899455225872612
96934546 -0.005051748985545865 0.003226352256847508
96964308 -0.005102426410592092 0.003211942991421266
96994070 -0.0051059052064235475 0.0032157278162122144
97023832 -0.004377003812561933 0.003622440931372446
97053594 -0.0051381122329773096 0.003218944069161021
97083356 -0.005167852019862389 0.003208090726898165
97113118 -0.005979821197977301 0.002755324961152017
97142880 -0.005179463673845583 0.0032316088177791412
97172642 -0.004438904535342802 0.00362459969584728
97202404 -0.005215731252325984 0.0032060258119123654
97232166 -0.005202740500854421 0.003245935985392898
97261928 -0.005201228358514716 0.003276814133562904
97291690 -0.005165756229790488 0.0033528671835492897
97321452 -0.005161992573942317 0.0034103745016100598
97351214 -0.005154480671035664 0.003440933171511467
97380976 -0.0051432119488674264 0.003506664462414109
97410738 -0.005104786031314353 0.0035702284610180067
97440500 -0.005082158883429374 0.003613161090527159
97470262 -0.0043201569319352906 0.00399672649678368
97500024 -0.0050496321780181125 0.003712691802186909
97529786 -0.00507255301384929 0.00374957091106745
97559548 -0.004291412218827972 0.004128347945254562
97589310 -0.005037290268797261 0.0038569005889897722
97619072 -0.004951754123272276 0.003940431833654165
97648834 -0.0050620733173616156 0.003936874052292372
97678596 -0.005030886432998869 0.004004534531751134
97708358 -0.004265316087557898 0.004345704911938373
97738120 -0.0050161682066583325 0.004107235812911534
97767882 -0.005015140454813903 0.004162175695776094
97797644 -0.005762819840144964 0.0038706771841472963
97827406 -0.004910504977095632 0.004231574541468456
97857168 -0.0047998125182475955 0.004259895091744517
97886930 -0.004716480958062271 0.0043151132325633095
97916692 -0.005388443358840086 0.004061827424257647
97946454 -0.004556421405531084 0.004386002941887137
97976216 -0.005210009357184 0.004145527802231416
98005978 -0.003733828732371482 0.0046641389398686265
98035740 -0.004336378853902726 0.004475871686823868
98065502 -0.004342443077589302 0.004486512024741215
98095264 -0.004406341420267771 0.004509172741366074
98125026 -0.004449410183049482 0.004538997996562687
98154788 -0.003818799469759961 0.00477477221702218
98184550 -0.0045850593482650364 0.004574203581313216
98214312 -0.004666998575097809 0.0045960242880699245
98244074 -0.0040107566921133726 0.004833638374566593
98273836 -0.004843327913941896 0.004605827115116883
98303598 -0.004883314058009125 0.004640615778681211
98333360 -0.004960072629857164 0.004634647170898775
98363122 -0.004983488905863524 0.004607552632221183
98392884 -0.004924949015162648 0.0046073268460885336
98422646 -0.004950514617311873 0.0045642071367863754
98452408 -0.004933463577520314 0.004555231631824186
98482170 -0.004871213350639487 0.004550577260064008
98511932 -0.004898574894221623 0.004507681519504597
98541694 -0.004115764829450205 0.004738098127778043
98571456 -0.004817256369042102 0.004488989936956118
98601218 -0.005529208915464501 0.0042124761171438456
98630980 -0.004763019953681425 0.004492856209361877
98660742 -0.004713327454338173 0.004540483946449727
98690504 -0.003956632891849282 0.004791803679376897
98720266 -0.00533058345883509 0.004406025825790003
98750028 -0.004571956798053441 0.004660411565151335
98779790 -0.0045155453540086515 0.00471883458382186
98809552 -0.004513563150472743 0.004751505825236827
98839314 -0.00441505137114881 0.004804401770380937
98869076 -0.004408691787885889 0.004828848962358684
98898838 -0.005043502327014738 0.004690166620181129
98928600 -0.004167881120589117 0.004911920180449667
98958362 -0.005170465821966171 0.004722447000223972
98988124 -0.004340693259431996 0.0049264446672556686
99017886 -0.004393705871314913 0.004958621493181038
99047648 -0.004457403274533766 0.004955724586229642
99077410 -0.004425799814380821 0.0049893465083895435
99107172 -0.004432500208354026 0.005008341884214678
99136934 -0.004506531028434568 0.004999577503018899
99166696 -0.004517017615078602 0.005025579735864391
99196458 -0.004472165229283168 0.005028280445358117
99226220 -0.00446914788702769 0.004999485144247329
99255982 -0.004530003066720888 0.004969486117780167
99285744 -0.0044817201761269115 0.004951054176950236
99315506 -0.004617663885899766 0.00492250904498535
99345268 -0.004451132428956028 0.004901727318567896
99375030 -0.004751357835703234 0.004902342819016896
99404792 -0.004726254109432972 0.004869786411112884
99434554 -0.004550822637986906 0.004830542915940858
99464316 -0.00443617045635475 0.0048898838463185094
99494078 -0.004409223598740031 0.004923444654612459
99523840 -0.004278786881921746 0.004998271238326367
99553602 -0.0042110051186897745 0.005051647756968321
99583364 -0.004754854245935125 0.004948234377244941
99613126 -0.0033892682011403127 0.0052910859866258
99642888 -0.0039570447221325255 0.005198621453085314
99672650 -0.003950492266896188 0.005246970184704222
99702412 -0.004396203878523403 0.00516599307269387
99732174 -0.0037527191499201473 0.005314600280707504
99761936 -0.0036311701304546874 0.0053125904889797715
99791698 -0.003895315730315438 0.0052532690030145995
99821460 -0.003880382601342642 0.005226184869954921
99851222 -0.003969378846024895 0.005191567937184825
99880984 -0.004562812276216218 0.005050372934803072
99910746 -0.0039863880403852225 0.005141115317279936
99940508 -0.004631959374702418 0.004986821078293199
99970270 -0.00406569350396328 0.005076331552562738
100000032 -0.0041109394306401035 0.005063816999250439
100029794 -0.004087716148157142 0.005074897871246742
100059556 -0.004077171351499624 0.00507776093646193
100089318 -0.004055416885254494 0.005086404140755783
100119080 -0.0040394632567004145 0.005096659591710013
100148842 -0.004024234584937851 0.0051007890395865785
100178604 -0.004014336531114697 0.005112890883296465
100208366 -0.004000104746143869 0.005122065210114708
100238128 -0.003982916587702861 0.005126363156037072
100267890 -0.0039646232982599 0.005144432180989095
100297652 -0.003951976459691815 0.005137180251451466
100327414 -0.003963609228982616 0.005149440833021116
100357176 -0.003971388149384527 0.005152992716372293
100386938 -0.0039599039596301564 0.005152875104989572
100416700 -0.003982987470520047 0.00515278255380815
100446462 -0.003977379285677549 0.005154666308153243
100476224 -0.003973606099890037 0.005163112390291777
100505986 -0.00398475303639092 0.00517624427125354
100535748 -0.003978663713706707 0.005171746221499907
100565510 -0.004003611606323696 0.005192440038256186
100595272 -0.00404123388254257 0.005225155215232877
100625034 -0.004096897378749023 0.005272926203916456
100654796 -0.004133653671015261 0.0053065870514035695
100684558 -0.004195378050924471 0.005341358786954864
100714320 -0.004238832481881927 0.005384513273821806
100744082 -0.004298469425133366 0.005425660072058403
100773844 -0.004348393308507757 0.005463959365399198
100803606 -0.004403117964907165 0.005504676442604337
100833368 -0.004452761757534812 0.0055473541623388715
100863130 -0.004408919469077954 0.005524385259988828
100892892 -0.004351478239107688 0.00552681941995024
100922654 -0.004305806083429977 0.005516403613966082
100952416 -0.004250456528822479 0.005505799989948999
100982178 -0.004208655803464152 0.005488806657914335
101011940 -0.004161000482391699 0.005479761933457062
101041702 -0.004107473745697254 0.005463171652245279
101071464 -0.004066058433853686 0.00546397523952091
101101226 -0.004018031763476038 0.005440615353739215
101130988 -0.003997026124027847 0.005438158369890044
101160750 -0.004003287276849729 0.0054239888957829906
101190512 -0.004013535986270571 0.005418326936554759
101220274 -0.004015885857027456 0.005419960134213525
101250036 -0.004019049565950907 0.005417056516056396
101279798 -0.004031855821964775 0.0054090199508017465
101309560 -0.00402774474260493 0.005399354003400328
101339322 -0.004037896420065428 0.005392777689775352
101369084 -0.004038502839683066 0.005383039226189805
101398846 -0.004022370083423181 0.005401874196825902
101428608 -0.003964503093652756 0.005465030302203024
101458370 -0.003912126446479131 0.005519351831088196
101488132 -0.0038497417627355503 0.005574455660455574
101517894 -0.0037872396348835697 0.005629238967162989
101547656 -0.0037214991754241167 0.005681422391324333
101577418 -0.0036577201445603504 0.0057408177550402496
101607180 -0.0035911278449340654 0.005793456142116974
101636942 -0.003525104566073224 0.005835556495271683
101666704 -0.003456267674804905 0.005891026326584624
101696466 -0.00355083653715109 0.0058411911132190235
101726228 -0.0036460716575527734 0.005791770493283253
101755990 -0.003735976659599482 0.005738745920648925
101785752 -0.0038346965219210358 0.005686041794526825
101815514 -0.0039157816472127766 0.005634435112433547
101845276 -0.00401131532653565 0.005563852434429674
101875038 -0.004087496952168145 0.005506495274079715
101904800 -0.004179972362205847 0.005427285401627373
101934562 -0.004249305394910311 0.005361425718550092
101964324 -0.004225519707305704 0.00536070637808999
101994086 -0.004140655451651576 0.005414153854371726
102023848 -0.004048834487293089 0.005450238069132277
102053610 -0.003968536449356754 0.005500958127081321
102083372 -0.0038768174813279504 0.005538959035747826
102113134 -0.0038021463507432484 0.00557613584230004
102142896 -0.0037145711343978495 0.005610060088637346
102172658 -0.0036218857179873784 0.005643130810692054
102202420 -0.003542872057089391 0.005669661032903959
102232182 -0.0035109720087819346 0.005703974209150648
102261944 -0.0035912743822291504 0.005724800816763894
102291706 -0.0036828170226936544 0.0057545501939145335
102321468 -0.0037732542949756886 0.005787246320764658
102351230 -0.003862842937119041 0.005810872831961541
102380992 -0.003963786352180011 0.005827719912533578
102410754 -0.004063031669932877 0.005845559372811632
102440516 -0.004162491198703593 0.005871285895461597
102470278 -0.0042643590680004955 0.005879839290052303
102500040 -0.004372512713335215 0.005896475510538618
102529802 -0.004321126581505109 0.005908615377395461
102559564 -0.0042595116835621 0.00593045013015302
102589326 -0.0042041263071489155 0.005948591989694818
102619088 -0.004160148226465498 0.005961233450402912
102648850 -0.00409288760042305 0.00597369853266583
102678612 -0.004043881715613357 0.0059858151030981075
102708374 -0.003993376638324433 0.0059943827813395455
102738136 -0.003928363514600433 0.006018422763446846
102767898 -0.0038790086424470016 0.006025066843431607
102797660 -0.003858614470176179 0.00600870990287014
102827422 -0.0038445098835585834 0.005975815530626848
102857184 -0.003831869373154997 0.005937542471014336
102886946 -0.003820332483474138 0.005917623771709677
102916708 -0.0038108748199760915 0.005883771900175397
102946470 -0.003796724532987736 0.0058650302178751374
102976232 -0.0037923645565028008 0.0058278546941871795
103005994 -0.0037769124939694937 0.005805558039432963
103035756 -0.0037743676044051924 0.00577449467523495
103065518 -0.0037692726994894713 0.005766046977066662
103095280 -0.00376666656378983 0.0057851622165747815
103125042 -0.003774643558781147 0.005812264231295499
103154804 -0.003775583045170368 0.005838142526244339
103184566 -0.0037729813468720323 0.005864501000853377
103214328 -0.003778731028731875 0.0058926582013590365
103244090 -0.003785496771976179 0.005912357522379449
103273852 -0.003786944139988703 0.005950241193976736
103303614 -0.0037887216766508847 0.0059704985500941485
103333376 -0.0037903510257258307 0.006001274267915556
103363138 -0.003707401578826998 0.005993740526048493
103392900 -0.00361531188667897 0.00598777821869745
103422662 -0.003539256458138089 0.005974218906343527
103452424 -0.0034477352547865785 0.00596742548836153
103482186 -0.003364834925592679 0.005965661707072691
103511948 -0.003283192329549541 0.005949912442500737
103541710 -0.0032089976697556636 0.005934196388228476
103571472 -0.003131294808042409 0.00591913534221099
103601234 -0.003050132494697535 0.00590722093420179
103630996 -0.00305576081397852 0.0059019310070873654
103660758 -0.00309701471943991 0.0058990182819168005
103690520 -0.003150278715853483 0.005885402559401355
103720282 -0.003200242163002321 0.005876217825178695
103750044 -0.0032414439453486757 0.005875604725306012
103779806 -0.00329402291133961 0.005865346431148355
103809568 -0.003343864379537328 0.005855891483014039
103839330 -0.0033938735145271188 0.005846848479561979
103869092 -0.003438258359897737 0.005834098537686815
103898854 -0.003488575591214927 0.005831766928460276
103928616 -0.003522603703714514 0.005854008319759029
103958378 -0.0035731974884425964 0.005882771734531907
103988140 -0.0035407315282810813 0.005890231707952354
104017902 -0.003571024060484308 0.005914090955451482
104047664 -0.0036108522905150485 0.005931016550609148
104077426 -0.0036478884010048866 0.0059530059197158945
104107188 -0.0036906820492664636 0.005975004642512751
104136950 -0.0037387115652979777 0.0060004829142344005
104166712 -0.0037736476359284937 0.006022123055912966
104196474 -0.003861957041921231 0.006065021815605098
104226236 -0.0038348037813459687 0.006115589885670978
104255998 -0.0038296159226139347 0.006148753852060148
104285760 -0.00381233780586659 0.0061932672541708915
104315522 -0.003804864477641199 0.006236359011096241
104345284 -0.0037970676716195077 0.006277615901533035
104375046 -0.0037736156587394633 0.006326723158732441
104404808 -0.0037627671097798104 0.006370953486212698
104434570 -0.0037552992898222536 0.006415750253351102
104464332 -0.0037400654614569043 0.006391965440880104
104494094 -0.0037414077111764337 0.006337332883714505
104523856 -0.003739493111571551 0.0062775303313588725
104553618 -0.0037305409370864745 0.006218795907819474
104583380 -0.003722432151380906 0.006162953312539857
104613142 -0.0037105554331949534 0.006106728865918966
104642904 -0.0037048121174553116 0.00605244501338345
104672666 -0.0036981631667565604 0.00599831668030914
104702428 -0.003685082470315386 0.005941692251844727
104732190 -0.0036811640585191277 0.005939703469710292
104761952 -0.0036634525926933156 0.006003791247767518
104791714 -0.0036490919729100573 0.006073121329842085
104821476 -0.0036245596188528143 0.0061479580516144395
104851238 -0.003601366699258108 0.006219708511618176
104881000 -0.0035836430508354956 0.006288484722289283
104910762 -0.0035632965398385364 0.006363647810819186
104940524 -0.00354153170548556 0.0064323496164241795
104970286 -0.0035155123699409886 0.006513281387272215
105000048 -0.003478286908792338 0.006585826230654956
