# HZ S RI R 50
90000000 -0.0001456172059188487 0.005155560710143414
90029762 -0.00011036064583403695 0.005185956456572219
90059524 -0.0003277497268494957 0.0051958938880816595
90089286 -0.00018735728975910514 0.005238530867510579
90119048 -0.00035558180002620316 0.005253795655650834
90148810 -0.00022024369967963315 0.005287849241774533
90178572 -0.0002360302243181827 0.005316593917045279
90208334 -0.00020238939645492445 0.005348043156179154
90238096 -0.00042190859861826246 0.0053572755533824405
90267858 -0.00028494147053459087 0.005394238968023577
90297620 -0.0002762936278190011 0.005371689741464505
90327382 -0.00019767740123585823 0.00531969449882741
90357144 -0.00021890629746043914 0.0052735710559494225
90386906 -0.00014387500735061888 0.005227677343107663
90416668 -0.00030661362262929335 0.005162268543502265
90446430 -0.00013748845252402087 0.005127357279023375
90476192 -6.632539353943745e-05 0.005085378711443372
90505954 -3.8253692652906176e-05 0.005036712406910239
90535716 -6.0853750602032875e-05 0.00498547511254141
90565478 1.5401112870455987e-05 0.004957280213641336
90595240 1.098695402258852e-05 0.004961922539384059
90625002 5.5023344291471965e-05 0.004959705071700319
90654764 0.00014597296602924557 0.00496828792518799
90684526 0.00018647918027017525 0.004968742498446995
90714288 0.00018691602225252203 0.004971618492978543
90744050 0.00022937707465851164 0.004966620064527949
90773812 0.0003171933023097445 0.004969845277695348
90803574 0.0003239689683489956 0.004967131299987121
90833336 0.000407730869818901 0.00497044259362989
90863098 0.00043690550976447615 0.0049369412580216095
90892860 0.0004212029875413696 0.004905995425271041
90922622 0.0004902081384108325 0.004876112556862173
90952384 0.0005183819831317858 0.0048385478534840425
90982146 0.0005034356417542992 0.0048043090257690255
91011908 0.0005703595347071206 0.004771177641227761
91041670 0.0005545169135898876 0.004740970119034663
91071432 0.0005818691817936278 0.0047085923401337226
91101194 0.0004971772463049816 0.004673741967682221
91130956 0.0006459734972287293 0.004678361869026372
91160718 0.0006003327544391311 0.004697185526208043
91190480 0.0005899525108967347 0.004717531273842462
91220242 0.00046149130599699555 0.004737032240933136
91250004 0.0005614201779988616 0.004758794752687476
91279766 0.00043814351329214305 0.0047720124812154095
91309528 0.0005804294441456515 0.004793546831399979
91339290 0.000530760881589494 0.004815669018954914
91369052 0.0005523500972289416 0.004839985076159934
91398814 0.0004005662969570808 0.004829881633175017
91428576 0.0005257764786519467 0.004800372087253371
91458338 0.0005693427306000651 0.00477228832440688
91488100 0.0005461349402555755 0.004737179541083052
91517862 0.0005588989053192002 0.0047032365573539655
91547624 0.0006087855677168052 0.004669799417888037
91577386 0.0006214742201174467 0.0046357969631868005
91607148 0.0005976430044357876 0.00459935542878845
91636910 0.0006104818200072318 0.004562325886752238
91666672 0.0006595607719805188 0.004528720564712063
91696434 0.0007036734027230963 0.00451081934330955
91726196 0.0008077633491433431 0.004496239274897744
91755958 0.0008872656554882685 0.004477526142370627
91785720 0.0009316321769162228 0.00445432011941856
91815482 0.0010411055892817491 0.004423435412894528
91845244 0.0011183854291741634 0.004402852178275832
91875006 0.001156267370183765 0.004375857387567983
91904768 0.001144340793143737 0.00434576166974757
91934530 0.0013102402811287753 0.0043090936876928575
91964292 0.0013553271746810998 0.0042969396241920805
91994054 0.0014030867752051355 0.00428299425907684
92023816 0.0013061121215403747 0.004283765439248636
92053578 0.0014132465270877599 0.0042782997740066575
92083340 0.0014361552455307053 0.0042716117592560155
92113102 0.0014864171092271543 0.004267249444207109
92142864 0.001478910168683691 0.004249641655134807
92172626 0.0015377355685983226 0.004247310268834408
92202388 0.001435283513749553 0.004248966091473641
92232150 0.0015287425013597942 0.004212326953917486
92261912 0.0014356554460699027 0.004152762324402827
92291674 0.001535578495781923 0.004083112026059751
92321436 0.0014956442363721443 0.004019160975880746
92351198 0.0015154230942916592 0.003955246544628121
92380960 0.001480428904266052 0.0038913224261827705
92410722 0.0014711811576531124 0.0038235329749628515
92440484 0.0014839867431966191 0.0037634988457305187
92470246 0.00148241996504227 0.0036998978738283445
92500008 0.001443831042713788 0.0036343695683710635
92529770 0.0014628661321166932 0.0036195726743397396
92559532 0.0015074129439556997 0.003596520043073578
92589294 0.0015129416194877056 0.0035791953431214734
92619056 0.0015523973871466243 0.0035570530039487633
92648818 0.001566400478933626 0.0035307172346331355
92678580 0.0015703003908792194 0.003510669374407491
92708342 0.0016066392379155143 0.0034782092297209193
92738104 0.00163201198365638 0.0034570249133621532
92767866 0.0016379014414492732 0.0034289288535256104
92797628 0.0016856323307432545 0.0033829095312886462
92827390 0.0017120329585066116 0.0033326976992947314
92857152 0.001746118710670328 0.0032772582558105584
92886914 0.0017197488898791262 0.0032287988765756096
92916676 0.0018378859701396215 0.0031654703548946094
92946438 0.0018532994041930058 0.003107084301834693
92976200 0.001888408408672768 0.0030426906604735676
93005962 0.0018695785101103311 0.002989870946096096
93035724 0.001949819367558954 0.0029117417818978475
93065486 0.001943669100481892 0.0028511755758507604
93095248 0.0020564956634092657 0.0027356298019359333
93125010 0.0020844649345763203 0.0026442262688791142
93154772 0.002162644085831359 0.002537584752931329
93184534 0.002129440945520403 0.0024622775988611114
93214296 0.002206188208644501 0.0023296230773800007
93244058 0.0021946851846119724 0.0022495032859475577
93273820 0.002268230974361691 0.002121796566937958
93303582 0.002285115086593791 0.0020058234491503635
93333344 0.002322112747298855 0.0018862344728022655
93363106 0.0022962761811881425 0.0018252843961345674
93392868 0.002250867468073976 0.0017838654335895973
93422630 0.0022295087689356533 0.0017197527260665116
93452392 0.0022040002090986466 0.0016503624773105316
93482154 0.0021647899796770754 0.0015890934579711386
93511916 0.002132557445376554 0.0015213931029061743
93541678 0.0021031015997951628 0.0014569039454826816
93571440 0.002073013481908719 0.0013771953073553177
93601202 0.00202701192897312 0.0013121261410548994
93630964 0.0020133803318254464 0.0012040588327321027
93660726 0.0019977868419769748 0.0010917898881119697
93690488 0.001991728373665397 0.0009684096979996164
93720250 0.0019575316233185354 0.0008533921266126805
93750012 0.0019184724548611662 0.0007272088885019952
93779774 0.0018826761104297433 0.0006056863273017035
93809536 0.0018307221622892076 0.0005085463476631638
93839298 0.001806348407618821 0.0003601486036633389
93869060 0.0017288080442495956 0.000247333707739715
93898822 0.0016684464462107008 0.00012383137760697764
93928584 0.0016166118918775631 2.1136530628045225e-05
93958346 0.0015253421313850633 -7.994348217975786e-05
93988108 0.0014636046053187585 -0.0001872000637682716
94017870 0.0013560356579250662 -0.000284559925469736
94047632 0.0012907902506768963 -0.0003896794898605309
94077394 0.0011677699949889863 -0.0004980699236622359
94107156 0.0010758555493456854 -0.0006076587882681267
94136918 0.0009602949207442109 -0.0006961299176008936
94166680 0.000859384049635639 -0.0007835334680818901
94196442 0.0007962089173620927 -0.0009085548422211944
94226204 0.0007614703599934971 -0.0010548140679120595
94255966 0.0006411782045150141 -0.0011942932573528755
94285728 0.0005427398918567178 -0.0013516804523042631
94315490 0.00044706446740961465 -0.001542711915626218
94345252 0.00031486992618412604 -0.0017446845660713031
94375014 0.0001879176200408189 -0.002014610943339899
94404776 3.6503509709876275e-05 -0.0022296077366068187
94434538 -0.00012296833057839402 -0.002562466736176116
94464300 -0.0003452502783962248 -0.0026187908273275304
94494062 -0.0006022140892980941 -0.0025077084660142857
94523824 -0.0007807305607108882 -0.0024291959949411515
94553586 -0.0009692942925389125 -0.0023629452198595854
94583348 -0.0011461591989396672 -0.002237296971786015
94613110 -0.0012765750204138736 -0.0021555243144138064
94642872 -0.0013877670867619252 -0.0020470386544282435
94672634 -0.00154120366971884 -0.0019406118309023383
94702396 -0.0016376991660032978 -0.0018366642648128576
94732158 -0.0017267700883568467 -0.0017866945310785545
94761920 -0.0018757052974875117 -0.0017649063875534398
94791682 -0.0020180599476156773 -0.0017774994768933183
94821444 -0.0021748291333149043 -0.001672756865076268
94851206 -0.0022795993380581594 -0.0016936536054501224
94880968 -0.002434943747408195 -0.0015734131433035711
94910730 -0.002569992351570661 -0.0015559609803856998
94940492 -0.002664398411547692 -0.001462274185543138
94970254 -0.002776989882058394 -0.0014600281107246195
95000016 -0.00290955088128215 -0.0013519313489054488
95029778 -0.003036120848611334 -0.0013559022068664306
95059540 -0.0031753257319404034 -0.0012869270258961119
95089302 -0.003313897907988624 -0.001234882576135062
95119064 -0.003456914896759559 -0.0011701784363473602
95148826 -0.0035767480364259996 -0.0011852949623271972
95178588 -0.0037174901943370095 -0.0011040620878710898
95208350 -0.0038351881524143054 -0.001048766832325572
95238112 -0.003957018115690825 -0.0009923039187477386
95267874 -0.004070051348287279 -0.0009155203290107175
95297636 -0.0041849868616854295 -0.0008491357241177371
95327398 -0.004285812881635255 -0.0007897198905419875
95357160 -0.004394405008514067 -0.0006934014816407785
95386922 -0.0044773513737023755 -0.0006004958799458421
95416684 -0.004564616146151899 -0.0005320817046106155
95446446 -0.004652681327367273 -0.000432954716381692
95476208 -0.004717199995869442 -0.00035006012572056196
95505970 -0.004808959360055071 -0.00026402983717829965
95535732 -0.0048857888099569065 -0.00018789294569211245
95565494 -0.004950625699123529 -8.23027964940304e-05
95595256 -0.005022852018694902 3.359353925213969e-05
95625018 -0.0050690245070921175 0.00013569924788531533
95654780 -0.005150092967389202 0.0002430298989280414
95684542 -0.005190830517721504 0.00036965778209114837
95714304 -0.005236493563218925 0.0004737571739911265
95744066 -0.005291043089689816 0.0006052016852429909
95773828 -0.005337362375828207 0.000699837890236597
95803590 -0.005350754603288144 0.0008291028805576073
95833352 -0.005405334758088455 0.0009658572899362148
95863114 -0.005370933106993328 0.0010532087494739208
95892876 -0.005365655778151704 0.0011450841973976345
95922638 -0.005363807775676246 0.00120497469052316
95952400 -0.005334399127785594 0.0012894435657352646
95982162 -0.005326064666613704 0.0013561968645849109
96011924 -0.005969272506115616 0.000532654978114514
96041686 -0.005287176669043449 0.0015370339766979865
96071448 -0.005266276999847403 0.0016203308133711308
96101210 -0.005226366383592944 0.0016801980308872484
96130972 -0.0059539926652567065 0.000914734608173705
96160734 -0.005256834510583605 0.0018245054333949535
96190496 -0.005292438178918292 0.0018929443469237312
96220258 -0.005309185967956844 0.0019661730792045543
96250020 -0.005328872943567424 0.002050897660486356
96279782 -0.005550392070865106 0.0020093293660518627
96309544 -0.005388910019223924 0.0021470260817542694
96339306 -0.005594021067395278 0.0021430898638547208
96369068 -0.005413088997947944 0.0022987117766165104
96398830 -0.00541905775955809 0.0023761205663495794
96428592 -0.00542939011113487 0.002456952977666396
96458354 -0.005528527498459433 0.0024722888627061964
96488116 -0.004681711555696558 0.0031633318733900154
96517878 -0.005464226226322007 0.0027238023065963273
96547640 -0.005456128727089045 0.002794704035943289
96577402 -0.0054685029956682675 0.002884677344832741
96607164 -0.005472101780148381 0.002979045696471224
96636926 -0.0046608048960207525 0.003554144002272795
96666688 -0.005736506564911002 0.0030414799094267394
96696450 -0.005433002124219138 0.003152119551602091
96726212 -0.005402921489155098 0.0031557440543382095
96755974 -0.006222291391899443 0.002604332667238938
96785736 -0.005309862161189913 0.0031768227317220095
96815498 -0.006126501205920266 0.0026182215867918738
96845260 -0.005219715224503728 0.003192536009223216
96875022 -0.005188853226828124 0.0031999970827181344
96904784 -0.005161357732656839 0.003186883160670708
96934546 -0.005059094855763235 0.0032252199500992064
96964308 -0.005084341151893257 0.003212148592971098
96994070 -0.005105321478036884 0.003214763036879927
97023832 -0.004371642873377366 0.003613305529500014
97053594 -0.005126129986337241 0.003228337700309433
97083356 -0.005163032751895074 0.0032122449903931273
97113118 -0.005990970787759999 0.0027310298324288535
97142880 -0.005170793549932801 0.0032356106667934714
97172642 -0.0044520409108365295 0.0036158564384875173
97202404 -0.005215238136178 0.0032182595894447497
97232166 -0.005204311794630003 0.0032415188000327905
97261928 -0.0052144651887104 0.0032799404915644054
97291690 -0.005179672539622597 0.0033601637903068727
97321452 -0.00516321236499307 0.003406206531966625
97351214 -0.005179533865162295 0.0034445178733261495
97380976 -0.005147462956014952 0.003497195112803934
97410738 -0.005108807042984602 0.0035631450390615467
97440500 -0.00509215219279714 0.003611503672432341
97470262 -0.004335702056226399 0.003989116052895438
97500024 -0.005057361294536181 0.0037060809810136154
97529786 -0.005082299928898657 0.0037333425935621224
97559548 -0.00429935002989943 0.004119722738017538
97589310 -0.005046952239631358 0.003845448585190195
97619072 -0.004953560070668619 0.003932126963437804
97648834 -0.005069652305338892 0.00393849891160188
97678596 -0.005038577015339241 0.004010702548978272
97708358 -0.004278247629767123 0.004344050286134881
97738120 -0.005029798869883514 0.004099187156584981
97767882 -0.005036887694185403 0.0041561818446525815
97797644 -0.00578435073478974 0.003859280500724161
97827406 -0.0049298190056151405 0.00422816802676596
97857168 -0.004810444703917569 0.0042741455233157415
97886930 -0.0047362707159269 0.004318067661441145
97916692 -0.005402963796959663 0.004053321329022668
97946454 -0.0045715309957773875 0.004383867912989064
97976216 -0.005236882936447607 0.004139034432108923
98005978 -0.003746318337171605 0.004662340272570795
98035740 -0.004349128663823494 0.004476104675113393
98065502 -0.00435007005579891 0.004489147977656028
98095264 -0.004432006667851424 0.004495862778919056
98125026 -0.004475288638017417 0.004533798394982535
98154788 -0.0038361380747859116 0.00477338376077894
98184550 -0.0046049321283645 0.004576928097224595
98214312 -0.0046805835812258065 0.004593331570241989
98244074 -0.004022055568473181 0.004830959486909734
98273836 -0.004865186663900693 0.004600952699248076
98303598 -0.0049112628960825445 0.0046244660606982535
98333360 -0.004998461123544814 0.004635172507614102
98363122 -0.00500805837899919 0.004605559564042825
98392884 -0.004951188672008116 0.0046072581175161985
98422646 -0.0049846305164823685 0.004568014043377346
98452408 -0.004950699823906409 0.00456054365723321
98482170 -0.004901343985224867 0.00454477677961043
98511932 -0.004927514026294628 0.004518704659958393
98541694 -0.004140345950598786 0.004735720935540303
98571456 -0.004852706433731039 0.0044938763628128015
98601218 -0.005554070400934263 0.004206176323471214
98630980 -0.004794070166043492 0.004497314882517525
98660742 -0.0047640357787820916 0.00454919120524542
98690504 -0.003992707101789471 0.004804078607016421
98720266 -0.005367935226514384 0.004412388032609119
98750028 -0.004604583443042466 0.004675994162830987
98779790 -0.004550860866958756 0.004728957454263029
98809552 -0.004552557009871958 0.004754793400303113
98839314 -0.004444798050169337 0.004808173271292199
98869076 -0.004447121934131879 0.004833887071367908
98898838 -0.005075720543043501 0.0047038532910213884
98928600 -0.004378136449477523 0.004902659103876661
98958362 -0.005099124320419918 0.004735992868162715
98988124 -0.004467437360732539 0.004918329501096029
99017886 -0.004424829759307774 0.004960450467854899
99047648 -0.004492509582647933 0.0049740551591153795
99077410 -0.004442898464220531 0.0049999654128527185
99107172 -0.0044679176153366975 0.005010631063465578
99136934 -0.004535049911635839 0.0050219785975961434
99166696 -0.004552520718493402 0.005044383409893806
99196458 -0.0044995189601518115 0.005033860256272029
99226220 -0.004511917754696443 0.005019642003938442
99255982 -0.004562510473277084 0.004980987794194551
99285744 -0.004511944159947977 0.004975598032564316
99315506 -0.004562986546243138 0.004943791589274371
99345268 -0.004568438577633441 0.004921814483478274
99375030 -0.00451829684085779 0.004905739715253007
99404792 -0.004573541173986839 0.00488117343747481
99434554 -0.004575665618542718 0.0048602252604965255
99464316 -0.0044697124359891465 0.004895491444218813
99494078 -0.004448247706015044 0.00494569648673391
99523840 -0.0043099678747174 0.005013699570845155
99553602 -0.0042298768286160885 0.005066072897683114
99583364 -0.004789586240426508 0.00497816573880357
99613126 -0.0034125210896133553 0.005297962242415951
99642888 -0.003981527524199977 0.005214628947124066
99672650 -0.003903570048092887 0.005271001853066435
99702412 -0.004423321728949461 0.005191562631443244
99732174 -0.003775163280547649 0.005335540422669901
99761936 -0.0036655867651409968 0.0053359060005232165
99791698 -0.003921054599201948 0.00526643841445418
99821460 -0.003905305982474401 0.0052585121462472555
99851222 -0.004007518356514795 0.005216972339284731
99880984 -0.004595320494913007 0.005074237832773739
99910746 -0.004021476627379518 0.00517672320395145
99940508 -0.004672219196325439 0.005009994485830861
99970270 -0.004099959180196847 0.005109823611673563
100000032 -0.00413252574365097 0.005087511140523114
100029794 -0.004116042303971252 0.0050853127841364535
100059556 -0.004099986580102215 0.005095277425709416
100089318 -0.004079951126506558 0.005118263768095397
100119080 -0.004069082229992456 0.0051235182628257105
100148842 -0.0040508937788276324 0.005131140014117438
100178604 -0.00403041525337385 0.0051363190650558855
100208366 -0.004019365208742646 0.00514893558676088
100238128 -0.003999670753901399 0.005168653619766332
100267890 -0.003988899759350045 0.005164950433721201
100297652 -0.003984570960652613 0.005166453473539841
100327414 -0.003977627373683844 0.005182784468806195
100357176 -0.003980594021541042 0.005187255750327018
100386938 -0.003982479150491317 0.005188821230641095
100416700 -0.003988122875520614 0.005193986429059527
100446462 -0.003984584614270042 0.005193304833805549
100476224 -0.003997020306218923 0.005204353219681778
100505986 -0.003997800877762251 0.005205092887921105
100535748 -0.004002737702236375 0.005213789773430602
100565510 -0.004023098259418594 0.005224914360755328
100595272 -0.004062299061812641 0.005261232299804074
100625034 -0.00410971599831343 0.005307760029357775
100654796 -0.004164667641523974 0.005337998833707564
100684558 -0.004214193639006529 0.00537982576527272
100714320 -0.004254341966901712 0.005432505815543729
100744082 -0.00430911019511385 0.0054629391480246915
100773844 -0.004367980917287795 0.005500452107104199
100803606 -0.004419442658995167 0.005544223178339251
100833368 -0.004475983855968237 0.00558282732200143
100863130 -0.0044197842130095834 0.005579730229784625
100892892 -0.004369111498603543 0.005565574349853732
100922654 -0.004321217976207784 0.005553287550242513
100952416 -0.004266276990364913 0.005550480356913732
100982178 -0.004219084996428667 0.0055273362220075945
101011940 -0.0041641825739784566 0.00551987514605885
101041702 -0.004110841624050224 0.00550612926457509
101071464 -0.004060140807554839 0.005486889709440827
101101226 -0.004017318804381763 0.005483055121617851
101130988 -0.00399705903993253 0.0054701837400465275
101160750 -0.004005384463048432 0.005461649356058932
101190512 -0.0040194391912660105 0.00545752054761478
101220274 -0.004019733095669334 0.005451989737472587
101250036 -0.004027499154146821 0.005439951302013941
101279798 -0.004034444988338672 0.0054416228669926245
101309560 -0.004038683687643391 0.005437343947300229
101339322 -0.004038031351844684 0.0054258319675973415
101369084 -0.004042001010838052 0.005415796617034146
101398846 -0.004023810841802028 0.0054398095913639685
101428608 -0.003969616043202261 0.005491439379010921
101458370 -0.00390682529984784 0.0055531463962426525
101488132 -0.003840175689350543 0.005618273263699189
101517894 -0.003783684233843874 0.005662480972876142
101547656 -0.0037127460119577645 0.005717743545364489
101577418 -0.0036483968332796297 0.005775518921526195
101607180 -0.003585266554285845 0.0058231109537660065
101636942 -0.0035117540646017816 0.005878619704329748
101666704 -0.003452892210145153 0.005927816379011118
101696466 -0.0035408263913242616 0.005880501706916029
101726228 -0.003648612254302063 0.005832122598890104
101755990 -0.0037345615499965665 0.005782047731756049
101785752 -0.003821930445632363 0.005722036318099716
101815514 -0.003907754207045232 0.005664616552476932
101845276 -0.004001159096830188 0.005597755486280316
101875038 -0.004078020461526355 0.005528007079279066
101904800 -0.004169936280518623 0.005468164001572735
101934562 -0.0042452508407497475 0.005391816462295977
101964324 -0.004220498424184751 0.0054000332144367785
101994086 -0.0041398090914318035 0.005445682573447837
102023848 -0.004296744288634088 0.005531971831679001
102053610 -0.003958749532717601 0.005524248313510941
102083372 -0.0038785699154192544 0.005564828848706623
102113134 -0.003793482969428536 0.005601441507982726
102142896 -0.0037064206309351784 0.0056415403276674145
102172658 -0.003617672517955679 0.005664545180536998
102202420 -0.003531848464619711 0.005699105068492001
102232182 -0.0034950796389570157 0.005721517175727157
102261944 -0.0035823034318157748 0.005759067564525187
102291706 -0.0036669061781486254 0.005786166870285212
102321468 -0.0037658266622222366 0.005812026179178947
102351230 -0.0038539110620309435 0.005830943410305622
102380992 -0.003947652984390073 0.0058488170189355615
102410754 -0.00404864970215151 0.00586157268985785
102440516 -0.004149768128474614 0.005890125212030406
102470278 -0.004254745664737775 0.005906475360658283
102500040 -0.004361741143504081 0.005925107545649387
102529802 -0.004310909396809025 0.005935831264130649
102559564 -0.004244570783498944 0.005953273916871577
102589326 -0.004198082800643728 0.005969812852670602
102619088 -0.004140560196767729 0.005981599489867179
102648850 -0.00408711597745773 0.005994692030707652
102678612 -0.004030831953133519 0.006004491557779451
102708374 -0.0039716332904131115 0.0060205946539332
102738136 -0.00392251007873837 0.006033107758975559
102767898 -0.003871810498097584 0.0060361655748525905
102797660 -0.003847802464360668 0.006019577251067926
102827422 -0.0038301252030866362 0.005995068952303622
102857184 -0.003820868860112999 0.00596965473078032
102886946 -0.003812796106422118 0.005930265860720278
102916708 -0.003802524735507936 0.005905782956492815
102946470 -0.0037890163741541123 0.005880222679250108
102976232 -0.003775003735753022 0.005848081776243764
103005994 -0.003773066887597236 0.005816454021683152
103035756 -0.003758070923625971 0.005787116086849873
103065518 -0.0037594380293593495 0.005778204047543846
103095280 -0.0037488859275814925 0.005803604002116877
103125042 -0.0037607608645985266 0.005831348113771118
103154804 -0.0037602906924479656 0.005856417003025578
103184566 -0.003769070227706993 0.005878314212897509
103214328 -0.003771895504388086 0.005906262588615635
103244090 -0.003768314410143331 0.0059244073915906735
103273852 -0.0037746297322572217 0.005956539492161327
103303614 -0.003777874449820984 0.0059889644087995865
103333376 -0.003784954657719076 0.006008353051786097
103363138 -0.003691714310684662 0.00600370216775503
103392900 -0.0036120509451111086 0.005998919321927283
103422662 -0.003523848737779151 0.005990553733208254
103452424 -0.0034354931902390155 0.005978857953551658
103482186 -0.0033566886498384058 0.0059720613854538866
103511948 -0.003268587010535794 0.005955928086400578
103541710 -0.003196689191064068 0.005946350372947231
103571472 -0.0031125086067791186 0.005928896413967823
103601234 -0.0030404317290126594 0.005919898483771669
103630996 -0.0030413717374728907 0.005900160663397499
103660758 -0.003093161744785674 0.005899641434520394
103690520 -0.0031399876431331144 0.005893646256902014
103720282 -0.003188494174636645 0.005892425852942631
103750044 -0.003230923320324562 0.005879871101999972
103779806 -0.0032814871661884944 0.005872581658845209
103809568 -0.003326084363188237 0.00585710777317591
103839330 -0.003373730039838506 0.005848342021415949
103869092 -0.0034328298430897084 0.005841527134221674
103898854 -0.0034732230973997104 0.005839692045625151
103928616 -0.003509921494997153 0.005859204186268142
103958378 -0.003550604904596053 0.005883004660274882
103988140 -0.003586610374642427 0.005920238571761376
104017902 -0.003633864546081606 0.005926312656126402
104047664 -0.0036716217943673327 0.0059468741099838775
104077426 -0.0037246906406841578 0.005968050907419734
104107188 -0.0037592922014167015 0.005987771576792714
104136950 -0.003805095045100629 0.006012087857270541
104166712 -0.0038567533914956797 0.006029120312463296
104196474 -0.0038465780619615303 0.0060782973900706215
104226236 -0.003831826562785849 0.006118008423930918
104255998 -0.0038137081899574155 0.0061536341798142016
104285760 -0.0038071152577670827 0.0062035784180534395
104315522 -0.0038027634366077042 0.006244377156811524
104345284 -0.0037796544271844973 0.006295839167229766
104375046 -0.0037717919980676294 0.00633696206325338
104404808 -0.003756681888148279 0.0063831307904487315
104434570 -0.0037371931987387826 0.006418232678692732
104464332 -0.0037265091409110188 0.0063893710443186464
104494094 -0.003731261349761778 0.006336013132626522
104523856 -0.0037138241563429873 0.0062832864461402895
104553618 -0.003722755297601778 0.006231065500251128
104583380 -0.003713456145224136 0.006163213999854896
104613142 -0.003710153239016852 0.006115852819660489
104642904 -0.0036933705266420894 0.006060871092906151
104672666 -0.0036885578151634704 0.006003837945920575
104702428 -0.0036780183455404447 0.005958270029480757
104732190 -0.003670285226341107 0.005938809298401505
104761952 -0.003652872029878134 0.006007568012725958
104791714 -0.0036398194922366268 0.006076708080224712
104821476 -0.0036136552705098614 0.006153169275350591
104851238 -0.0035897214918128263 0.0062196034564124475
104881000 -0.0035750665147698 0.006284940094691587
104910762 -0.0035437715655812075 0.006362522333544905
104940524 -0.0035218962573182475 0.006442004602380872
104970286 -0.0035021948155584772 0.006514029955462942
105000048 -0.0034761292346694042 0.006583676084585523
