# HZ S RI R 50
90000000 -0.00011804306479555658 0.005137576242919709
90029762 -8.084710555675361e-05 0.005161742341565527
90059524 -0.0002946526038055144 0.005180982859969971
90089286 -0.00016097977215717677 0.005217767653726034
90119048 -0.00032252210065509483 0.005227463066252355
90148810 -0.00018440766270111765 0.00526414672137453
90178572 -0.0002009979824179959 0.005291613135493954
90208334 -0.00016443074547118494 0.0053248186276030835
90238096 -0.00038619873442425 0.0053333227225429184
90267858 -0.0001460002984654797 0.005364583375481006
90297620 -0.0001842113956974177 0.005343864276397336
90327382 -0.00020846521761513548 0.005301557617676699
90357144 -7.989360889979117e-05 0.005234206001797306
90386906 -5.489854958477741e-05 0.005197107207325231
90416668 -0.00022035468457937737 0.005131060049150644
90446430 -5.157715514876746e-05 0.005096864521948242
90476192 -2.8718314174561616e-05 0.005051378177832113
90505954 -3.977476100430914e-06 0.0050073641976090206
90535716 -2.458584156791642e-05 0.0049586494771983155
90565478 5.2916412864511526e-05 0.004930083674076632
90595240 4.705784102306126e-05 0.0049339964820438184
90625002 9.385711650121557e-05 0.004934763554400196
90654764 0.0001807238065188096 0.004935043373163789
90684526 0.00022693716911595396 0.004937332446333102
90714288 0.00022774966158975655 0.004936148466669601
90744050 0.0002697704978922462 0.00493772362945364
90773812 0.0003610673847674365 0.0049391619158430195
90803574 0.00036261360151821265 0.004935385857009002
90833336 0.00045120468596359585 0.004933990104754319
90863098 0.00047870392648783564 0.004900482100219277
90892860 0.00046420370181973395 0.0048645941549360725
90922622 0.0005297826159282087 0.004833765817103876
90952384 0.0005602742482415165 0.004804068736118305
90982146 0.0005451836010646599 0.004767777859505693
91011908 0.0006118612425346874 0.004735420898094119
91041670 0.0005963301527871941 0.004700027642675737
91071432 0.0006261159229049708 0.004669738307585245
91101194 0.0005360787402885777 0.004629940436363796
91130956 0.0006915519139266454 0.004634271206134297
91160718 0.0006420641944190863 0.004658899299163218
91190480 0.0006339157142544169 0.0046764603755856185
91220242 0.0005084735737772021 0.0046931146994856066
91250004 0.0006155866275736737 0.00471555659131807
91279766 0.000488227373135907 0.004732444464079631
91309528 0.0006274835063559851 0.00475078207333424
91339290 0.0005803919091881056 0.004772174559163379
91369052 0.0006043485851317664 0.004790015822242402
91398814 0.0004453888573130103 0.004783596179875964
91428576 0.0005769456029245993 0.004748978949457836
91458338 0.0006205220492269875 0.004720060992254819
91488100 0.0006000255286709017 0.004681414483685457
91517862 0.0006095674516953894 0.0046505797732572865
91547624 0.0006563900239400273 0.004617037351002249
91577386 0.0006689606480201058 0.004581370098541966
91607148 0.0006456088226636145 0.00454510131909639
91636910 0.000660157421239257 0.004507814040293205
91666672 0.0007041668631766639 0.00447595553716501
91696434 0.0007515920821567512 0.004455351209407682
91726196 0.0008572959380917708 0.0044382678608094524
91755958 0.0009388640617100144 0.004416426413319619
91785720 0.0009862844235421096 0.0043906272164818206
91815482 0.001089312985714194 0.0043598950090411905
91845244 0.001166991691714453 0.004327232304272652
91875006 0.0012093965436577037 0.004304138856572529
91904768 0.0011899964866097686 0.00427110029049756
91934530 0.001360719964843496 0.004226607471691486
91964292 0.0014007744485530218 0.004208938770544956
91994054 0.001445711651276459 0.004197273933292467
92023816 0.0013496306930001027 0.0042037782613994715
92053578 0.0014562546051870562 0.00419345747103349
92083340 0.001478689006294042 0.004178329645098073
92113102 0.0015253747152687935 0.00416787096073146
92142864 0.0015209013255367985 0.004157046295372613
92172626 0.0015681896724209056 0.0041500192323636765
92202388 0.0014729962471465709 0.004149819137298304
92232150 0.001569191823126733 0.0041109504761181435
92261912 0.0014735753449099463 0.004049597697182077
92291674 0.001564256122282885 0.003981548030548972
92321436 0.001529159252231609 0.003915266881307464
92351198 0.0015408141228126404 0.003847415621626934
92380960 0.0015002937973062787 0.0037853136980552514
92410722 0.001489465859831421 0.0037206990255144977
92440484 0.0015049715078162113 0.0036516495263254445
92470246 0.0014918349438312406 0.0035928051564783473
92500008 0.0014607891092736011 0.003528209983665745
92529770 0.0014803943670015306 0.0035063306838085603
92559532 0.001524731848202403 0.0034903509200144424
92589294 0.0015164181606233346 0.0034648194206617156
92619056 0.0015598545102562453 0.00344008408818643
92648818 0.0015759981387988228 0.0034164091251035885
92678580 0.0015693380762002412 0.003397483832107608
92708342 0.0016144129949137956 0.0033655157942254765
92738104 0.0016312169474097576 0.0033318346184094227
92767866 0.0016206552648552854 0.003310147709426744
92797628 0.001670653687939967 0.003261973150143217
92827390 0.0016937774733676175 0.003216034538944857
92857152 0.0017157710519687113 0.003160996628135194
92886914 0.0016895025087617151 0.003114221503437564
92916676 0.0018030877703149322 0.0030467540322170104
92946438 0.001808246482670799 0.0029852181135152575
92976200 0.0018417196550959858 0.0029263929359523806
93005962 0.0019314531716353707 0.0027646280821466258
93035724 0.002006231130694944 0.002680262445704807
93065486 0.002194760965840553 0.002402929215942688
93095248 0.002095625923402582 0.002490362622799178
93125010 0.0021205171603268414 0.0023840646011074693
93154772 0.002162396260710983 0.0022760525927481906
93184534 0.0021430594883765954 0.0021895352879230355
93214296 0.0022112519814620614 0.002063987602762542
93244058 0.0021967581203159348 0.0019636713011655284
93273820 0.002251368877172783 0.001822688808462865
93303582 0.00226115415862056 0.0017165151826855566
93333344 0.0022695470635231176 0.001580313974765516
93363106 0.002250403730123363 0.0015205868911378191
93392868 0.00221186489145377 0.0014664967633605322
93422630 0.0021737701028355094 0.0013955409466009747
93452392 0.0021443532660102346 0.0013142482441715622
93482154 0.002102216746509745 0.0012526457036011983
93511916 0.0020595234837435207 0.0011739119507286802
93541678 0.002032241438494157 0.0010940865933101239
93571440 0.001979548406298391 0.001014161643095684
93601202 0.0019376686291411324 0.0009327321504672391
93630964 0.0019006009257946557 0.0008117899800363166
93660726 0.0018789099134825613 0.000708823350713298
93690488 0.0018283982003333727 0.0005880305761423155
93720250 0.0017856813230693797 0.00047564493239364537
93750012 0.0017313920275459189 0.00034036266201329437
93779774 0.001685955274982832 0.00022608510437328625
93809536 0.001614829341931834 0.0001245332546543185
93839298 0.0015381803447149537 -1.0778186083645918e-05
93869060 0.0014615870908490055 -0.00013001567507110978
93898822 0.0013721715837900193 -0.0002351062222460725
93928584 0.0012649650723823022 -0.0003342744079079313
93958346 0.0011812697895981054 -0.00043944866804620743
93988108 0.0011013334407979425 -0.000547642238964713
94017870 0.0009777687691680103 -0.0006433797047788295
94047632 0.0008811934534658473 -0.0007302680860416386
94077394 0.0007386118099777247 -0.0008165264456818831
94107156 0.0006278942793901031 -0.0009003596545184096
94136918 0.0005100699962350683 -0.000976565900415394
94166680 0.0003913930149795612 -0.0010515435032509995
94196442 0.000285330116997955 -0.0011926127493641233
94226204 0.00020128015862061504 -0.0013637016383846198
94255966 2.7342137532948363e-06 -0.0014814269322832119
94285728 -0.00010413046386276261 -0.0016520812997321353
94315490 -0.000257806119197681 -0.0018256750819803714
94345252 -0.0004651067169370045 -0.002048317081196705
94375014 -0.0006559684247212593 -0.002303763890761108
94404776 -0.0008597519411042465 -0.00254037800501262
94434538 -0.0010652086932637734 -0.002921288638238141
94464300 -0.0013078562573919181 -0.0029283273195227525
94494062 -0.001530539232590607 -0.002715325359304738
94523824 -0.0016640640801378402 -0.002543334477930021
94553586 -0.0018008685373799799 -0.002423937110334278
94583348 -0.0019579664597677363 -0.0022404384347342464
94613110 -0.0020324949583082575 -0.0021354875595251057
94642872 -0.0021303788849348707 -0.0019908451196978647
94672634 -0.0021906009813266692 -0.0018191382547483469
94702396 -0.002279047900601921 -0.0017058969717931665
94732158 -0.0023388392939268756 -0.0016181249330288468
94761920 -0.0024643567990313767 -0.0015914637374862498
94791682 -0.002587413589839294 -0.0015722601085850013
94821444 -0.002721706007962208 -0.001463951016801875
94851206 -0.002839072191699446 -0.0014648926416772408
94880968 -0.002951120241540134 -0.0013135126850998987
94910730 -0.003059845725394133 -0.0012520307276087477
94940492 -0.003171712383711531 -0.0011667809859380654
94970254 -0.003259458949998956 -0.0011299107004578504
95000016 -0.0033517270195096674 -0.001017882950610619
95029778 -0.0034905007409951633 -0.0010328630202019096
95059540 -0.003579891318508466 -0.0008990481439095544
95089302 -0.0037215270652733987 -0.0008685433853797563
95119064 -0.003832110305808582 -0.0007726390952823612
95148826 -0.003962259531602665 -0.0007930735003207844
95178588 -0.004067229464668907 -0.0006587017337242533
95208350 -0.00417310999135724 -0.0006016911808788998
95238112 -0.004260437415572604 -0.0005363243191728304
95267874 -0.004375680723440958 -0.00048484374595497085
95297636 -0.004456719105342227 -0.00039475144308574663
95327398 -0.004538531990299495 -0.0003117182385375887
95357160 -0.004624231006622014 -0.00024370256123304053
95386922 -0.004688606728653566 -0.0001401283663635785
95416684 -0.004757786318168775 -5.241970909575832e-05
95446446 -0.004835015554856841 9.497508650564126e-06
95476208 -0.004879579702703697 9.881757823120512e-05
95505970 -0.0049474354153066806 0.00019210775249909877
95535732 -0.00499988089910288 0.0002822002096225052
95565494 -0.0050549048098926 0.00037410486475496023
95595256 -0.005097407398948114 0.00047879881794170656
95625018 -0.005159140040937692 0.0005904120268634714
95654780 -0.005192930508343048 0.0006932743659931311
95684542 -0.005211594361308049 0.000816987528117612
95714304 -0.005251016522032694 0.0009103136334746487
95744066 -0.0052829788141524866 0.0010414702590604845
95773828 -0.005329044880783131 0.0011192233103104806
95803590 -0.005322625583886553 0.0012466067129688137
95833352 -0.005358770169054758 0.0013404479726538614
95863114 -0.005316473391529643 0.0014451533689834887
95892876 -0.005303691387409255 0.0015233848682788583
95922638 -0.005277150721810101 0.0015736064352510307
95952400 -0.005258453436280773 0.001657410524819572
95982162 -0.005225348831435557 0.0017349423263252803
96011924 -0.005927959680026028 0.0009634522061417915
96041686 -0.005165776769345304 0.001857865474084316
96071448 -0.005136311481495237 0.0019319602284451145
96101210 -0.005110202615236079 0.002001589652839597
96130972 -0.005864905899268295 0.0012639991350036296
96160734 -0.0049392556377438855 0.002209023019460324
96190496 -0.005337620159386036 0.002092083419129841
96220258 -0.005163007470030723 0.002242217948249627
96250020 -0.00519384388029113 0.0022745151440153595
96279782 -0.004997083582878604 0.0024410822574448348
96309544 -0.005217203346719396 0.0024092161859186408
96339306 -0.005235413867678499 0.002449324976269421
96369068 -0.005255338141693217 0.002522639579590111
96398830 -0.005259723295391279 0.0025995058880081095
96428592 -0.005267380578015099 0.0026613308799400422
96458354 -0.005272965901473108 0.0027453366266534203
96488116 -0.004505952434808999 0.0033259880814643407
96517878 -0.0054746243444135706 0.0028482234775812788
96547640 -0.005271395415228194 0.0029894554605786995
96577402 -0.005289019738960372 0.003063120160750439
96607164 -0.00529054923731991 0.003148738906903124
96636926 -0.004498443083438612 0.0036849330457001013
96666688 -0.004976901754232694 0.0033927731382915605
96696450 -0.0052441146780714785 0.0032838689081818215
96726212 -0.005207498933034425 0.0032947712992851307
96755974 -0.006033317808215144 0.0027595458467466953
96785736 -0.005124575971113296 0.0032970836610080032
96815498 -0.005920253241053856 0.0027835641213598532
96845260 -0.005047228711393122 0.0032970078285029345
96875022 -0.005007543785628011 0.0032975919023337822
96904784 -0.004981371865889946 0.0032864760147879282
96934546 -0.004889648458251183 0.003329041112278538
96964308 -0.004936218263420554 0.00329153380668538
96994070 -0.0049445742987856535 0.003300994419839013
97023832 -0.004226625777723208 0.0036771395380884365
97053594 -0.004971366087487027 0.0032951085685737538
97083356 -0.005015829115923363 0.003282402813947065
97113118 -0.005797866964241189 0.002814700440901781
97142880 -0.005016425278522962 0.0032956440467612944
97172642 -0.004311644323376273 0.0036558732261885393
97202404 -0.005064544067204781 0.003268816570614824
97232166 -0.005053699657946357 0.003280466215414003
97261928 -0.0050580066612222075 0.0033367475691185697
97291690 -0.0050401304063699085 0.003382156439464984
97321452 -0.005020120037050618 0.003436132750200123
97351214 -0.005021650639702043 0.0034702963284310977
97380976 -0.005010077995734689 0.003518472691806834
97410738 -0.004982473933907178 0.0035773399648635286
97440500 -0.004961470959921537 0.0036283569803134564
97470262 -0.004219350920709747 0.003998256043726607
97500024 -0.004927573041195324 0.0037098306928007928
97529786 -0.004950911281340827 0.003756074405715713
97559548 -0.004201728848265848 0.004113197220029724
97589310 -0.004930898376778276 0.003852411632263045
97619072 -0.004848970186801817 0.003932456373416211
97648834 -0.004958053886053903 0.003931966434948089
97678596 -0.004924446065265187 0.0039935711328110916
97708358 -0.004184951366643397 0.004329715886686386
97738120 -0.004928924330853564 0.0040816416531646044
97767882 -0.004926997662299537 0.0041419764595995445
97797644 -0.0056695508954003595 0.0038446726125248433
97827406 -0.004823460899170436 0.004207587277455995
97857168 -0.004719534735580507 0.004254763610815894
97886930 -0.004639091515484832 0.0042859441834223605
97916692 -0.005312084885419326 0.004035662037683198
97946454 -0.004496876501850021 0.004352385855866387
97976216 -0.005144311627565817 0.004114680157790306
98005978 -0.003689134727116899 0.004637024726325204
98035740 -0.004287128112925436 0.004450920015520568
98065502 -0.004295071618949349 0.0044522448353314144
98095264 -0.004375268798911999 0.00447087446714311
98125026 -0.004400977179724107 0.004502510062247354
98154788 -0.0037944654627368873 0.00474432117982825
98184550 -0.0045498834790004125 0.004541413709578004
98214312 -0.004623015428124402 0.0045474039617839235
98244074 -0.003984830578503088 0.004790827689985251
98273836 -0.004817781477158402 0.004575082591361578
98303598 -0.004861765807938018 0.004590285007697393
98333360 -0.004938823922223964 0.00459848025803822
98363122 -0.004965135741237258 0.004569240345001278
98392884 -0.0049052213730139795 0.004566559276253439
98422646 -0.004944881309181963 0.004541955874359982
98452408 -0.0049200475570159935 0.004519694883340173
98482170 -0.004867982088666186 0.0045090341443397896
98511932 -0.004890249759693591 0.004478156800010292
98541694 -0.0041211522196677374 0.004709613522508755
98571456 -0.00482472261274182 0.004455449034190574
98601218 -0.005528721697363199 0.004176037962173843
98630980 -0.004777898272864061 0.004460647733086838
98660742 -0.004718054431231 0.004518997745677442
98690504 -0.003971130281726224 0.00477796016080295
98720266 -0.0053539514811727605 0.004363321808613934
98750028 -0.004586775736026129 0.004655250612982706
98779790 -0.004536604964599289 0.004704032485598015
98809552 -0.004540240649890338 0.00472172153665331
98839314 -0.004439982466483796 0.004774449020418443
98869076 -0.004440918780298306 0.004805584808663231
98898838 -0.005071867980781959 0.004683291438389558
98928600 -0.004380183759831395 0.004878465064839759
98958362 -0.005104576277510346 0.004718270030532801
98988124 -0.004460803121898904 0.00490449633625762
99017886 -0.00443990630703023 0.0049423836842444335
99047648 -0.004499168385094933 0.0049450679886418394
99077410 -0.004458475450378824 0.004985175151409907
99107172 -0.0044791060191674125 0.005005535857226191
99136934 -0.004546736603841669 0.0049966789061196
99166696 -0.004561331181760369 0.0050226481993987495
99196458 -0.004515893774304539 0.005023075519729085
99226220 -0.004518985258643873 0.004994395442722908
99255982 -0.004577755001495898 0.0049730600946953476
99285744 -0.004531918985343183 0.004962145628669478
99315506 -0.0045886977749577266 0.004933727171508289
99345268 -0.004773541932631486 0.004924875336414089
99375030 -0.00443972140862748 0.004911883341089124
99404792 -0.004590556509251466 0.004869502159140816
99434554 -0.0045942388801668566 0.0048567528858371985
99464316 -0.004307340803034193 0.004900086116227654
99494078 -0.004458901231678139 0.0049509035752740805
99523840 -0.004331341045619043 0.005013514141790252
99553602 -0.004425902132331653 0.005090597587274803
99583364 -0.004610616843131044 0.0049561831648885874
99613126 -0.0034248947438107807 0.005309230326935581
99642888 -0.003995792081566258 0.00522451821566503
99672650 -0.00391597481567663 0.005277334811280214
99702412 -0.004439329066548716 0.005192178403974972
99732174 -0.003796245832812688 0.005337304533994768
99761936 -0.0037495595759696027 0.0053500661912329935
99791698 -0.003937608158618094 0.005285798918726821
99821460 -0.003909421826489273 0.005270550568442069
99851222 -0.004019309813349089 0.005233781329766465
99880984 -0.004602956851400635 0.005088586356707444
99910746 -0.00402952474748897 0.005188441424684921
99940508 -0.004687093764042508 0.005030546824174134
99970270 -0.004107583159208747 0.005130910478847439
100000032 -0.004141966129246001 0.005109636964122906
100029794 -0.004125953552609848 0.005115152966731614
100059556 -0.004098130296302971 0.005128374384610265
100089318 -0.0040822735705578934 0.005138018994496314
100119080 -0.004068251866136304 0.005151677615866619
100148842 -0.004059187637465228 0.0051482769095974705
100178604 -0.004042335571843588 0.005167123020545046
100208366 -0.004021840725782962 0.0051747346481627885
100238128 -0.004004366838026525 0.0051873859363998276
100267890 -0.003987218853670727 0.00518884600858633
100297652 -0.0039868632486243834 0.005202532106961426
100327414 -0.0039855944263018335 0.0052058372157826735
100357176 -0.003988841833380441 0.005206458684552355
100386938 -0.003980748765861541 0.0052121672022334125
100416700 -0.003994261890858075 0.005216619013237486
100446462 -0.003990954067727752 0.005220091570575423
100476224 -0.003994544077841796 0.005224000859780349
100505986 -0.003994827320018272 0.005227130601261735
100535748 -0.004002674983504369 0.005236555502990264
100565510 -0.004008400268571806 0.005251430817950823
100595272 -0.004060258067816133 0.0052897650888354755
100625034 -0.004107143447794078 0.005324909805358817
100654796 -0.004147112347488602 0.005372586532435679
100684558 -0.004205022071655202 0.0054094209463727595
100714320 -0.004244495655936978 0.005455078802113703
100744082 -0.004295192278265791 0.0054963866649879066
100773844 -0.00435921063000357 0.005532907244007081
100803606 -0.00440301873426829 0.005576455768113974
100833368 -0.004465872559882368 0.005605781153376062
100863130 -0.004407357779459158 0.005605335512944815
100892892 -0.004363613194889463 0.005584475676761637
100922654 -0.004312502822826117 0.005576231939506616
100952416 -0.004255189668904381 0.005565705207655153
100982178 -0.004194554596028209 0.005555090103087629
101011940 -0.004157779836669975 0.00554683030965576
101041702 -0.004094197581389929 0.005537673896096165
101071464 -0.004060455602147292 0.005506879525132686
101101226 -0.004006894540500104 0.005503433389289517
101130988 -0.003984524653302179 0.005498570798164544
101160750 -0.004000231886245615 0.005490148198241709
101190512 -0.003999040512538087 0.005489447965244344
101220274 -0.0040000808748909215 0.005473602232062641
101250036 -0.004005052306220164 0.005471224321130095
101279798 -0.004012667453238756 0.005469409434150674
101309560 -0.004016772869187097 0.005462550771189747
101339322 -0.004012354443947267 0.005450440776492806
101369084 -0.004019324279776883 0.005443353531984518
101398846 -0.004007688404543737 0.005457817132085994
101428608 -0.003947225471268805 0.00551299525562534
101458370 -0.003887486071997256 0.005582472412317485
101488132 -0.003830125418231151 0.005632730977931345
101517894 -0.003759352478842586 0.005688360479384969
101547656 -0.003696314158413735 0.005736580976023215
101577418 -0.0036352862981888735 0.005793617389265333
101607180 -0.0035546088729484244 0.005841681882157774
101636942 -0.0034900651985225045 0.005896574573105989
101666704 -0.0034282975717408993 0.0059439488728949465
101696466 -0.0035205813596937653 0.005895800418856157
101726228 -0.003612289318389341 0.005847624431158027
101755990 -0.003709490638353205 0.005803651127245305
101785752 -0.003799373222199992 0.00573828895702439
101815514 -0.003887168357085243 0.005678363918804278
101845276 -0.00396989656662778 0.005620734485495203
101875038 -0.004056441432876573 0.005554963390636608
101904800 -0.0041464264533571365 0.0054860923955406616
101934562 -0.004219803143889879 0.005404624763187799
101964324 -0.004196416383373845 0.00540663140232225
101994086 -0.004101957233809316 0.005459861917973966
102023848 -0.0040156535465483804 0.005500504898367584
102053610 -0.003938084035104123 0.0055444180426810884
102083372 -0.0038584695316629045 0.005570178736243308
102113134 -0.0037714885108780798 0.005618924492289518
102142896 -0.003683631837628805 0.005643130609392261
102172658 -0.0035977416420898403 0.005686575920003528
102202420 -0.0034979095218020174 0.005709050012253431
102232182 -0.003483844426143198 0.005733642574560081
102261944 -0.003561283133897536 0.005765768400752089
102291706 -0.0036487044860091353 0.00578959906458769
102321468 -0.0037402229153329926 0.0058122245897981135
102351230 -0.0038279261371562488 0.005841255287166398
102380992 -0.003932168814793635 0.00587071517339805
102410754 -0.004026114305042368 0.005884936808850877
102440516 -0.004126701604490356 0.005911962043113158
102470278 -0.004228308522877716 0.005928082004424316
102500040 -0.004332326239946738 0.0059350912205062955
102529802 -0.004276884790104396 0.005950208340834208
102559564 -0.004224899548034876 0.005960324093238249
102589326 -0.0041684361819398184 0.005974746109188588
102619088 -0.00411407171855405 0.005985002216695371
102648850 -0.004056160002022365 0.0060040385900597
102678612 -0.004008342432622475 0.006015576508179481
102708374 -0.003948838063769105 0.006029594371955758
102738136 -0.0038994552803194413 0.006042929999775755
102767898 -0.0038396432732258 0.006052595957738096
102797660 -0.0038186389497934996 0.006034445661104013
102827422 -0.003800915049370694 0.006004849809495366
102857184 -0.003799161768505319 0.005976149556212618
102886946 -0.003789572284626743 0.005947020289471279
102916708 -0.0037792601425912253 0.005909903158630482
102946470 -0.003767074911794676 0.005888021950689966
102976232 -0.0037602340164402193 0.005855788868039239
103005994 -0.0037496666313581424 0.005823366918734009
103035756 -0.003731830591848005 0.0057969259675567575
103065518 -0.003722023108641711 0.00579333034437376
103095280 -0.0037277300728929 0.005816146601471398
103125042 -0.003735734567186111 0.005834559815010269
103154804 -0.0037392765929650683 0.005863394324670787
103184566 -0.003738241026579016 0.005884423369547709
103214328 -0.003740321294058431 0.00591342234088161
103244090 -0.0037449584132184886 0.005936104608767527
103273852 -0.00374738518319048 0.0059547410437387795
103303614 -0.0037532921935690532 0.005992378675853972
103333376 -0.0037598847969886346 0.0060138257873450195
103363138 -0.0036691652257942954 0.00600938690835361
103392900 -0.0035841096532391575 0.006003002587587113
103422662 -0.0034958208606498116 0.005993288880410548
103452424 -0.0034169104437021874 0.005990382866889978
103482186 -0.003335270617421674 0.005973502439291981
103511948 -0.003255851740496155 0.005961913067981739
103541710 -0.003166458578827081 0.005948876658386593
103571472 -0.003097520873694213 0.005927649716985713
103601234 -0.0030089635498825626 0.0059195319070856015
103630996 -0.0030269269616140597 0.005911805452075325
103660758 -0.0030734790955731436 0.005902926055780956
103690520 -0.0031162863562801146 0.005899973486540139
103720282 -0.003159755702870187 0.005892506795909371
103750044 -0.003211518002520041 0.00588527102350132
103779806 -0.003265782496369631 0.005876853537650293
103809568 -0.0033115397460139542 0.005860439865819407
103839330 -0.0033581567886550633 0.005850245650118738
103869092 -0.0034134854001393665 0.0058440956009738
103898854 -0.003454371680689258 0.005840351472175192
103928616 -0.003488319470985295 0.0058668462558268955
103958378 -0.0035268433501732008 0.005882233692310457
103988140 -0.0035676658587676362 0.0059108976874765904
104017902 -0.003615910425478338 0.005929263551941884
104047664 -0.003653496963700496 0.00595780563589425
104077426 -0.0037029512978380163 0.005973173753080502
104107188 -0.003742318122774291 0.0059990945982179664
104136950 -0.0037824485374126095 0.006011674961116082
104166712 -0.003837441524342282 0.0060363405753178015
104196474 -0.003815310409126554 0.006083206102376235
104226236 -0.0038091945259590004 0.0061194810679848855
104255998 -0.00380349045082567 0.006159808873055382
104285760 -0.003783196867902921 0.0062022544124349455
104315522 -0.0037762250037002925 0.0062557180766570795
104345284 -0.003756300219943805 0.006291328055621625
104375046 -0.0037519505146619103 0.0063401344790546725
104404808 -0.003735171424939027 0.00638046389130687
104434570 -0.003715231524052021 0.0064240817458585875
104464332 -0.0037182923893477617 0.006405657920981973
104494094 -0.0037100364006396607 0.006347545709376536
104523856 -0.0036977894130468857 0.006285000125668385
104553618 -0.0036998073270745075 0.006231827111046632
104583380 -0.003692992856188425 0.006174667106034746
104613142 -0.003683356641821672 0.006120669663509596
104642904 -0.0036741339461378378 0.006059192387271007
104672666 -0.0036640096504644776 0.006008585112196869
104702428 -0.0036626339040877476 0.005952751735277902
104732190 -0.0036454858922076094 0.005937030554127155
104761952 -0.0036286905960938288 0.006006466490897488
104791714 -0.00361652820627534 0.006072817168710941
104821476 -0.0036026080376916534 0.006151112580856046
104851238 -0.0035719152303831793 0.00622023730890165
104881000 -0.0035534584367450657 0.006290993742878584
104910762 -0.0035317676361666752 0.006362821254299653
104940524 -0.003510978548709073 0.006437415012056286
104970286 -0.0034793267151107315 0.006517624740801058
105000048 -0.003438093025273158 0.0065848308320992375
