# HZ S RI R 50
90000000 -0.00010327332809137475 0.005127180871435792
90029762 -6.572121008629915e-05 0.0051507582802625415
90059524 -0.0002796077885852873 0.005167144735410393
90089286 -0.00014470880799787164 0.00520364331525371
90119048 -0.0003096562259073954 0.005217650681561038
90148810 -0.0001723037144466455 0.00525613994787687
90178572 -0.00018596738544861477 0.00528245757392657
90208334 -0.00015287517468394332 0.00531124537873548
90238096 -0.00037143735399279787 0.005320184107042358
90267858 -0.0002338342689676687 0.0053618577252321315
90297620 -0.00031871441058665305 0.005356606397294758
90327382 -0.00014412388972253565 0.005288194669403861
90357144 -0.000163393102293904 0.0052316284882994194
90386906 -8.991553100639654e-05 0.005183445213004935
90416668 -0.0002489308384667986 0.005121478747790944
90446430 -8.74715380022836e-05 0.005086888853598448
90476192 -1.5463661602705178e-05 0.00504063392910815
90505954 1.3690814358366429e-05 0.004995278329233868
90535716 -4.512808320450056e-06 0.0049457433271458484
90565478 6.736177864286809e-05 0.0049175383718876335
90595240 6.924177631294985e-05 0.004910781273773402
90625002 0.00010710641270961098 0.004916420008717798
90654764 0.00019685507702117672 0.004921220027793267
90684526 0.00023975248780820448 0.004919315941942499
90714288 0.0002443225252236946 0.004917007790031668
90744050 0.0002878199994902894 0.004918451879874815
90773812 0.00037378672512642107 0.0049224506011936045
90803574 0.00037628852130239807 0.004912600378001295
90833336 0.00046617155729772314 0.004914838369720048
90863098 0.0004963828005770768 0.004882119537831054
90892860 0.0004773902481294779 0.004845487307598126
90922622 0.0005459816589596923 0.004812903349515023
90952384 0.0005731490410101919 0.004779627957923537
90982146 0.0005595431234286276 0.004744588551345209
91011908 0.0006261059372174282 0.004711181902940104
91041670 0.0006124581834570474 0.004676845917976717
91071432 0.000639548193928776 0.004643955389314984
91101194 0.0005503748477621037 0.004611229168411132
91130956 0.0007030144228869759 0.004611533842768752
91160718 0.0006598945337613995 0.00462966415551751
91190480 0.0006498957688929237 0.004650361819156043
91220242 0.000530213967560433 0.004664764853642029
91250004 0.0006293181085726197 0.004686018777043127
91279766 0.0005098101808717724 0.0047047354134977576
91309528 0.0006448212585445926 0.0047232924647482
91339290 0.0005988916342789147 0.004741317079112263
91369052 0.0006255562262132762 0.0047564642415541
91398814 0.00047064850602610096 0.004754746618795313
91428576 0.0005889523122995082 0.0047200280399518745
91458338 0.0006406598064303031 0.004688654335929085
91488100 0.0006206361695330026 0.004653420942583999
91517862 0.0006310427411117631 0.004614964144098851
91547624 0.0006799702672902575 0.0045782665202014836
91577386 0.0006935204828097847 0.00454557890078688
91607148 0.000671262727336474 0.004512665538516421
91636910 0.0006844500547431897 0.004472651596963079
91666672 0.0007313901718887725 0.004434165139292881
91696434 0.0007736837599202098 0.004419333725458277
91726196 0.0008823892703612379 0.004399923998744454
91755958 0.0009613593148754055 0.004377043906221689
91785720 0.0010063244622473414 0.004348961142420996
91815482 0.0011087891857906767 0.004315407480908911
91845244 0.001187807979372601 0.0042862254359478935
91875006 0.0012324589445913167 0.0042544877476050295
91904768 0.0012133530102078662 0.004224014011315453
91934530 0.0013834387334265832 0.00418055491021978
91964292 0.0014186100404357633 0.004164633432351598
91994054 0.001474486158862421 0.004149704775449042
92023816 0.0013710811222555296 0.004156663854749052
92053578 0.001480625853579262 0.00413464549592091
92083340 0.001506801070097186 0.004129362034596529
92113102 0.0015599495291314296 0.004113409912109743
92142864 0.001550867829002659 0.004102693386830972
92172626 0.0015982015696436682 0.004094777849472034
92202388 0.0015049161967932152 0.004088291836450336
92232150 0.0016007565731300751 0.004046746567354296
92261912 0.0015031174017465525 0.00399082943980498
92291674 0.0016080182086019997 0.003916127811345044
92321436 0.00156443933934964 0.003849874459797294
92351198 0.0015750270976921403 0.0037772508707338364
92380960 0.0015447578958305084 0.003713908872439266
92410722 0.0015333093078951183 0.0036494744956586333
92440484 0.0015457123213746251 0.003579940769746856
92470246 0.0015316764516813417 0.0035076221208691595
92500008 0.0015043162111766394 0.0034466304724158434
92529770 0.0015286149563514396 0.0034226451442273733
92559532 0.0015718110376176134 0.0034024820085170786
92589294 0.0015623954635348295 0.003371244677821807
92619056 0.0016092619099539259 0.003345208621267118
92648818 0.0016284813831424212 0.003317599427162786
92678580 0.0016291299795399504 0.003284883914417675
92708342 0.0016709576242713243 0.0032532863561538544
92738104 0.0016864964221536207 0.003220683092086894
92767866 0.0016817666841096308 0.0031839936024641424
92797628 0.001734245483920054 0.00313615641432401
92827390 0.0017482099408820894 0.0030787826943566997
92857152 0.0017794734288414564 0.0030242949587702857
92886914 0.0017503672466623662 0.002977372328368093
92916676 0.001858863826646303 0.002887168713362706
92946438 0.0018763175614178475 0.002828383931821085
92976200 0.001899451575687036 0.0027565114634711422
93005962 0.001876699565280707 0.0026998908878402687
93035724 0.0018801071162969126 0.002673624941614001
93065486 0.001945780925855991 0.0025512254685540682
93095248 0.0020416247213320303 0.002418986086600327
93125010 0.0020651342610138886 0.0023307712783565
93154772 0.0021122444212870683 0.0022115160466942463
93184534 0.0020807478864560656 0.002133196669167793
93214296 0.0021447345553700847 0.0019995957226945638
93244058 0.002129103784650716 0.0019075838148649227
93273820 0.0021811847486959014 0.0017751371726635564
93303582 0.0021904547898967124 0.0016606053428325663
93333344 0.002195273088519113 0.0015413745731743117
93363106 0.0021587481788090863 0.0014807040384937197
93392868 0.0021285235203708976 0.0014147597963464422
93422630 0.002098441282812798 0.001355782072377048
93452392 0.002059389980345062 0.0012803600570259464
93482154 0.0020083750490080413 0.0012334997474959294
93511916 0.0019687196570366368 0.0011419813338704498
93541678 0.0019124797852267175 0.0010808758191557999
93571440 0.001878996401613817 0.001000226572420394
93601202 0.0018333940598334816 0.0009131661652058401
93630964 0.0017958510135722195 0.0007974441745537335
93660726 0.0017698892367569669 0.0007084747524486136
93690488 0.001728749506996605 0.0005853507290726883
93720250 0.0016833726858533733 0.0004678099823743807
93750012 0.0016324814695962908 0.00035206673575181765
93779774 0.0015660191909677727 0.0002354375656398947
93809536 0.00151135260563272 0.00013851181920374744
93839298 0.0014294700395288175 1.3419992658679052e-05
93869060 0.0013599605562082573 -8.932000927614981e-05
93898822 0.0012750671856643502 -0.00020231314478679816
93928584 0.0011927297193766902 -0.000301471507326467
93958346 0.0010893147591320286 -0.0004027234826591091
93988108 0.0010369725292347807 -0.0004912633639325879
94017870 0.0009056914492078999 -0.0005850101016451848
94047632 0.0008346795212846188 -0.0006710608292057747
94077394 0.0006773144415842701 -0.0007392134342042362
94107156 0.0005740909086899307 -0.0008233662506868926
94136918 0.00044687311413280225 -0.000920156317067516
94166680 0.00033734326831000094 -0.0009780513682375715
94196442 0.000223201952821239 -0.0011162512891174446
94226204 0.00016371315794852983 -0.0012838434622412683
94255966 -2.8524239713483113e-05 -0.0013536161430102252
94285728 -0.00014023854804321093 -0.0015382860068713004
94315490 -0.0003081300025786681 -0.0017403246787873114
94345252 -0.0004772706498711181 -0.0019284968572734066
94375014 -0.0006611132383007658 -0.00216661605351475
94404776 -0.0008808540841508025 -0.0024387147690979067
94434538 -0.0011349264956771697 -0.002744815487782964
94464300 -0.0013099974724158402 -0.0027931695769587684
94494062 -0.0015078465517900793 -0.0026182915064104063
94523824 -0.0016618328260524537 -0.002470902014548854
94553586 -0.0017829914034190725 -0.002324440949474068
94583348 -0.0018936847914760237 -0.002158530068304501
94613110 -0.0019788707191145533 -0.0020543816078303313
94642872 -0.002064121685588086 -0.0019402953728779424
94672634 -0.002140682059693828 -0.0017687051382700898
94702396 -0.002222679968499565 -0.001657212649539729
94732158 -0.002286821087565508 -0.0015947247167486915
94761920 -0.002407305724929639 -0.0015517119265308652
94791682 -0.0025364288618315717 -0.0015824081052246992
94821444 -0.0026629887664911434 -0.0014524304232775074
94851206 -0.0027715685975587675 -0.0014396917189697306
94880968 -0.0029127799030748136 -0.0013124821531282703
94910730 -0.003006480560515255 -0.001257716298220484
94940492 -0.00310095079769931 -0.0011668712778615253
94970254 -0.0031937327332459357 -0.0011640398771630839
95000016 -0.003279555575137339 -0.0010351326868285715
95029778 -0.003422503590682436 -0.0010259183024784514
95059540 -0.003540038568236141 -0.0009220155959624598
95089302 -0.0036549960199264383 -0.0008934849003000908
95119064 -0.0037943812293187384 -0.0008267997576867547
95148826 -0.0038890805570504397 -0.0008211033224150426
95178588 -0.004000878963088468 -0.0007171350356781416
95208350 -0.004121209183629675 -0.0006674343307087081
95238112 -0.0042188102980450885 -0.0005729558543048979
95267874 -0.004321952217059271 -0.0005416002862823527
95297636 -0.004426334420412279 -0.00047092142934525495
95327398 -0.004498268436023612 -0.00037617283415255473
95357160 -0.004575265345438442 -0.00032610665988061814
95386922 -0.0046615420892811244 -0.00022080939324878651
95416684 -0.00474046050675113 -0.00012442906515947974
95446446 -0.004808998420533332 -7.311510572050912e-05
95476208 -0.004873505894564585 3.601529224770965e-05
95505970 -0.004938953100233879 0.00011939893123636273
95535732 -0.005012854530429733 0.00019384803788885567
95565494 -0.005065977317398786 0.00029026736901256625
95595256 -0.005106005036244526 0.00041828863808572115
95625018 -0.005162239774322746 0.0005007974181985967
95654780 -0.005200208212174976 0.0006269430509821814
95684542 -0.005244251869809011 0.0007406079680298551
95714304 -0.005291380352930564 0.0008298095385275982
95744066 -0.00532309625175472 0.0009311131300903022
95773828 -0.0053613559791720455 0.0010498069704070858
95803590 -0.005379002202106469 0.0011652181245085922
95833352 -0.005403538704172929 0.001266647413665423
95863114 -0.005380256301745182 0.0013509495899554592
95892876 -0.005370445897350179 0.0014187769055532106
95922638 -0.005354415432545943 0.0015008244748209874
95952400 -0.005317602928619747 0.0015789071641150272
95982162 -0.005295313158198987 0.0016515650759455127
96011924 -0.0060122124157141145 0.0008369645724856212
96041686 -0.005248935801150538 0.0017892766270379955
96071448 -0.005196867854255429 0.0018672463390643544
96101210 -0.0051938811611600836 0.001922780433528981
96130972 -0.00594562318281419 0.0011984261523113337
96160734 -0.005205428620114527 0.002051437104682457
96190496 -0.005233595457997823 0.002104044708369273
96220258 -0.0052620398305192944 0.002173667703401082
96250020 -0.005267631154931369 0.0022468929037029834
96279782 -0.0054694992050597895 0.0022118764747751517
96309544 -0.005201170715712088 0.0024116469323937103
96339306 -0.005312427639035154 0.002427475672445556
96369068 -0.005338387774396635 0.002481435509897646
96398830 -0.005346286140850411 0.00255741293559816
96428592 -0.005359644509304997 0.002626822511886472
96458354 -0.00537877966308321 0.002729970865122336
96488116 -0.004598940338515957 0.003315971214991353
96517878 -0.005375547724518554 0.002883484503367815
96547640 -0.0053819956447570694 0.0029810829885194
96577402 -0.005401682094619812 0.0030584700958798563
96607164 -0.005386759307470079 0.003141313725563261
96636926 -0.0045806696201456144 0.003671080611603808
96666688 -0.005401947232716875 0.0033018444344327137
96696450 -0.0055636571361576325 0.003313879520961208
96726212 -0.005317195583951328 0.0032948914139477375
96755974 -0.006156044959884997 0.002750965530900424
96785736 -0.005224042150724769 0.003311347792304278
96815498 -0.006057277538661197 0.0027872055996112184
96845260 -0.005150812300008438 0.0033270428878260203
96875022 -0.005115113915062501 0.003316414295628464
96904784 -0.005088231214848027 0.0033075528578426533
96934546 -0.00498534655294883 0.003347502568613075
96964308 -0.005034289122866364 0.0033216152549252606
96994070 -0.005041647251929782 0.0033251004517807366
97023832 -0.004307738051798443 0.003700566903043028
97053594 -0.005076441549725486 0.003324295579291299
97083356 -0.0051068087857857325 0.003323984264918569
97113118 -0.005903579046408561 0.0028529058289953517
97142880 -0.005115309325143819 0.003322590450141584
97172642 -0.004393568809154167 0.003709330656024373
97202404 -0.005168828495116186 0.003305922688595039
97232166 -0.00514319084894148 0.003344356339123137
97261928 -0.0051468814840598 0.003385034969136296
97291690 -0.0051109088956539294 0.003447430831756218
97321452 -0.00510659813723293 0.0034883802045621278
97351214 -0.005108233870121297 0.0035268902471481743
97380976 -0.005099897896661881 0.0035851969855214046
97410738 -0.0050528133955255955 0.0036438713304102715
97440500 -0.005036354569710647 0.0036975171805605847
97470262 -0.0042825462130710685 0.004060820914454298
97500024 -0.005006388560198453 0.0037941848963467125
97529786 -0.005029659143711427 0.0038270431380781848
97559548 -0.004248229800419424 0.004182528094507466
97589310 -0.004987133275877242 0.003937024505851208
97619072 -0.0049141392717634725 0.004011996944434809
97648834 -0.00501869132394345 0.004014763420926083
97678596 -0.004991739009937672 0.004070928699669442
97708358 -0.00422381273880574 0.004411581958871573
97738120 -0.004979108803282991 0.004179213608233824
97767882 -0.004974947082421668 0.004221847015932048
97797644 -0.005708356516279525 0.003959123395638952
97827406 -0.004871115161671579 0.004290534331409827
97857168 -0.004754541907808502 0.0043333317527802255
97886930 -0.004687341384142665 0.0043748562285577134
97916692 -0.0053595772931162985 0.004135987172005052
97946454 -0.004529463649506158 0.004431920800606344
97976216 -0.005172561751568352 0.0042121600513608925
98005978 -0.0036985098263892144 0.004709893725363384
98035740 -0.004305733001358935 0.004522569092130343
98065502 -0.004319347833717779 0.004535664184631011
98095264 -0.00438429857875564 0.004567982062202801
98125026 -0.004415389230486299 0.0045836544565667344
98154788 -0.0037901757086307025 0.004825305070938172
98184550 -0.004556529798938228 0.004632170969806067
98214312 -0.004634246392534189 0.004647656936726829
98244074 -0.0039896192739336 0.004878789909934267
98273836 -0.004820867484327288 0.004659236081091463
98303598 -0.004857243910927109 0.004690366779077107
98333360 -0.0049374907491345115 0.0046889318406155385
98363122 -0.004957914084901218 0.00466120761531714
98392884 -0.004902449082630506 0.004656389105609308
98422646 -0.004935544141178607 0.0046283303525221035
98452408 -0.004912007285469996 0.004610441262652178
98482170 -0.004863872497534054 0.004598140730218542
98511932 -0.004874793986544613 0.004571359857100608
98541694 -0.0040919684659144265 0.004785822831634684
98571456 -0.004806808244561777 0.0045448552685721875
98601218 -0.005512270883996073 0.00428343552066405
98630980 -0.004750621862352125 0.004541758138373249
98660742 -0.004698120603568387 0.004594360220674697
98690504 -0.003937135073998641 0.004842007520678829
98720266 -0.0053306608345836115 0.0044569376782486
98750028 -0.00455002075623826 0.004731494484259389
98779790 -0.004498970746450798 0.004768200299378995
98809552 -0.004500711534359239 0.004796339427626115
98839314 -0.004399413283058203 0.004846145974402837
98869076 -0.004392808417157708 0.004876873445477952
98898838 -0.0050176536167291065 0.0047430440031967685
98928600 -0.004330733456104486 0.004930716972950161
98958362 -0.005048188949695696 0.00478755327430274
98988124 -0.004415628190179069 0.0049609011203611995
99017886 -0.004380269051262566 0.0049932709253806525
99047648 -0.004439019173353716 0.004996632062527002
99077410 -0.004401086749166256 0.005026730883340983
99107172 -0.0044177610859477984 0.005045923557432409
99136934 -0.00439319838186904 0.005052363238108678
99166696 -0.004592523590454158 0.005064657619472859
99196458 -0.004368024927769017 0.005069149043324823
99226220 -0.004552832754220052 0.005030403276760597
99255982 -0.004506320792296632 0.005004045550604154
99285744 -0.004460381528869972 0.004995352454676395
99315506 -0.004523462866999343 0.00496723676300851
99345268 -0.0045243983740970595 0.004943439844347881
99375030 -0.004476599925710537 0.0049258191548926245
99404792 -0.0042665597055137295 0.004864811915327647
99434554 -0.004527505197563003 0.004875450427468342
99464316 -0.004608612142045758 0.004912600540394886
99494078 -0.004406250685840543 0.004970536073840784
99523840 -0.004263877040203202 0.005031234247579928
99553602 -0.004191839920895813 0.00509230844775249
99583364 -0.004728391516772951 0.004996819421002298
99613126 -0.0033735491233500775 0.005317821626205627
99642888 -0.003944627310251964 0.005233819395912386
99672650 -0.0038605414375075557 0.005275897665407257
99702412 -0.004379952176926617 0.005207260846330061
99732174 -0.003742402440713225 0.005348623896248937
99761936 -0.0036194568372723006 0.005347719944971298
99791698 -0.003881368454529109 0.0052881811484460925
99821460 -0.003867241376752999 0.005268271997462911
99851222 -0.0039629037058042495 0.005232623132928065
99880984 -0.004550181598956636 0.005090080542576377
99910746 -0.003983303589800099 0.00518039519868632
99940508 -0.004638166218853198 0.0050259889645421175
99970270 -0.004060445584415295 0.005120747855611314
100000032 -0.0041017384041204955 0.005099231394554449
100029794 -0.00408187743064911 0.005099862252250961
100059556 -0.004058820292304649 0.005114576543977706
100089318 -0.004048978484002644 0.005125114605434854
100119080 -0.004026445756930317 0.005126374999707003
100148842 -0.004016483198413548 0.0051391640651685345
100178604 -0.003996942577775122 0.005153272072755195
100208366 -0.003989472616580013 0.005154341398282333
100238128 -0.003981691938563202 0.005165511792419775
100267890 -0.003950121147712681 0.005167371564958092
100297652 -0.003947951014334494 0.005176439003889903
100327414 -0.003963705752813621 0.005183129021414873
100357176 -0.0039477447743570876 0.005190080074933981
100386938 -0.003956752328545792 0.005195930834839991
100416700 -0.003962730506430696 0.005199702082645094
100446462 -0.0039679400997963315 0.005201957524506052
100476224 -0.003961362777600866 0.005199137704124115
100505986 -0.003966894838699996 0.005207557968401071
100535748 -0.003974626127483236 0.005208895254818635
100565510 -0.003988920644298327 0.005221517055334409
100595272 -0.004030503669083203 0.005266914428962682
100625034 -0.00408309574417749 0.005305488236521655
100654796 -0.004124911786894665 0.005344564961125676
100684558 -0.004175829719229581 0.0053869894968509476
100714320 -0.004227242375739434 0.005422396735203851
100744082 -0.004288683136701346 0.005468425456142131
100773844 -0.0043247442747485956 0.005515327240084975
100803606 -0.004388599643415511 0.005546047540008045
100833368 -0.004445853978263568 0.005584832054435067
100863130 -0.0043953862190754004 0.005572666809918657
100892892 -0.004343511084435899 0.005555894636174796
100922654 -0.004287216614090252 0.005548623681397026
100952416 -0.004247510853666733 0.0055414215738497745
100982178 -0.0041931130308997125 0.005524671685362828
101011940 -0.004139967157846372 0.005520717070160079
101041702 -0.004091537293459957 0.005501282856672897
101071464 -0.00405435378989356 0.005496071395143215
101101226 -0.00399416634149968 0.00548645917992514
101130988 -0.003983109013057316 0.005471312324928093
101160750 -0.003986458255242277 0.005458114843058176
101190512 -0.003990516631001972 0.005460681599744078
101220274 -0.003998108556512353 0.005454349568016806
101250036 -0.004002998533454951 0.0054451993024209255
101279798 -0.004012132506864812 0.00543455815826873
101309560 -0.004016244944275507 0.005433082978838063
101339322 -0.004022652555406039 0.005433237083138765
101369084 -0.0040222172015757845 0.005417500810043073
101398846 -0.003999360357951975 0.005436217015108402
101428608 -0.003948013176370886 0.005492930102857355
101458370 -0.0038948463252099306 0.005552215824706247
101488132 -0.003828894022587502 0.005598481180325176
101517894 -0.0037644548297967925 0.005658340069458531
101547656 -0.0036987506125334404 0.00571737896461827
101577418 -0.003638473077323128 0.005770376326441577
101607180 -0.0035652544316738307 0.005823246235648159
101636942 -0.0034989875618108477 0.00586426302280564
101666704 -0.0034265947258152263 0.005928016013568801
101696466 -0.003524686383681661 0.005880524373096169
101726228 -0.0036250574198983523 0.0058201368753085314
101755990 -0.0037107515647631316 0.005782416953239767
101785752 -0.0038030865704538138 0.005721840823515966
101815514 -0.00389591601560371 0.005663095519930598
101845276 -0.003988436500801182 0.005599509543358789
101875038 -0.004068647707688944 0.005529389801676028
101904800 -0.004153719454561 0.0054643543232010755
101934562 -0.00422831611335091 0.005389091746717679
101964324 -0.00420239212682362 0.005403816423022464
101994086 -0.004123397540749439 0.005443683999833803
102023848 -0.004037573235239623 0.005494238203358664
102053610 -0.00395405509647084 0.005535013920744362
102083372 -0.0038720022019851264 0.005570859398336994
102113134 -0.0037870466001423274 0.005608330293797174
102142896 -0.0036912893378764897 0.005638762743025793
102172658 -0.0036110253227522714 0.005665707595914489
102202420 -0.0035243507916869594 0.005708620040938253
102232182 -0.003583261424789268 0.006472603702424941
102261944 -0.003574485058901242 0.0057625065927915916
102291706 -0.0036653771023515383 0.0057879134427255285
102321468 -0.0037454194211235135 0.0058160736713817685
102351230 -0.0038468305575274494 0.005831931151211652
102380992 -0.003948187400191554 0.005857633346305755
102410754 -0.004037543509815637 0.005870168810251819
102440516 -0.004144317177170047 0.005888202157830486
102470278 -0.004244636192790027 0.005916596772437956
102500040 -0.0043521691632087255 0.005926619511059887
102529802 -0.0042935755809733606 0.0059408303227204895
102559564 -0.004241616982422851 0.005955283271638422
102589326 -0.004192442921402645 0.005973524458648209
102619088 -0.004129224975261926 0.005985291605100957
102648850 -0.004078354151043374 0.006002344123581182
102678612 -0.004027998094643438 0.006016238382122581
102708374 -0.003967479568059845 0.006019060201380305
102738136 -0.003910794013823927 0.006040020114021308
102767898 -0.0038613088811890297 0.006043795404769304
102797660 -0.0038343459426690776 0.006027844634607034
102827422 -0.0038228566608126155 0.005996680381267083
102857184 -0.003811844511148676 0.005976251984022042
102886946 -0.0038012809007755676 0.005944657126124228
102916708 -0.0037926809643133376 0.005905614388956821
102946470 -0.003783490718549678 0.005881563084517854
102976232 -0.0037793234751782143 0.005856727386118583
103005994 -0.0037613032759277864 0.00582222846794527
103035756 -0.003757446502426397 0.0057906972504950345
103065518 -0.003750008694451741 0.005785823205351977
103095280 -0.0037562381110141344 0.005804476651432159
103125042 -0.003750861938774748 0.005834159817906321
103154804 -0.0037542528410238916 0.005862833418708099
103184566 -0.0037625825168049925 0.005886009571784077
103214328 -0.0037605035389147957 0.005917286215359652
103244090 -0.003763696259674177 0.005941208230040773
103273852 -0.0037696791535537246 0.005969882071694539
103303614 -0.0037691108326653603 0.005987683438591667
103333376 -0.0037754424431833172 0.006019201722032317
103363138 -0.0036892159405849403 0.006013297965640592
103392900 -0.0036031887745080295 0.006004105335854794
103422662 -0.0035167543777585623 0.006000751831840686
103452424 -0.003428856181323504 0.005980030015430818
103482186 -0.0033507370576530446 0.00597765561456012
103511948 -0.0032679485203141487 0.005970661669830917
103541710 -0.003182343394255366 0.005956758330325967
103571472 -0.003116633394722525 0.0059413795424937965
103601234 -0.003030688773299434 0.005920592862125897
103630996 -0.0030384926795733926 0.005914832256490505
103660758 -0.0030860101020626705 0.005914723656704828
103690520 -0.0031323038075020166 0.005904693089056052
103720282 -0.003181742217637302 0.005901085940967514
103750044 -0.0032305654894540852 0.005895758332368136
103779806 -0.003271607566445966 0.005884313626664851
103809568 -0.0033257485745720166 0.005874865121385472
103839330 -0.00337549049734143 0.005865977869947558
103869092 -0.0034261516133396925 0.005848105734508083
103898854 -0.003468392991970483 0.005850805199831473
103928616 -0.003513898713614702 0.005868690809788793
103958378 -0.0035434145790422217 0.005894504761113885
103988140 -0.0035774191845658436 0.005915791837587638
104017902 -0.0036286229437816463 0.005937316984488335
104047664 -0.003674306146112473 0.0059608366233958
104077426 -0.003707151111538568 0.005978430358178333
104107188 -0.0037603496222142533 0.00600321188056781
104136950 -0.0037994458609652217 0.006017607999320225
104166712 -0.0038455679947682884 0.006042071018183804
104196474 -0.0038338396825374054 0.006085720342406388
104226236 -0.00382822455950022 0.006133278216354263
104255998 -0.0038043534687338303 0.006174542679390068
104285760 -0.0038026349473316316 0.006220057183700098
104315522 -0.0037892399129838177 0.006253615082933658
104345284 -0.003777846347536998 0.00630427974444667
104375046 -0.003768618554928123 0.006351220498071429
104404808 -0.0037503708052563137 0.006392185659114277
104434570 -0.0037364760520008505 0.006436066170243543
104464332 -0.0037298564711486276 0.006413070789076602
104494094 -0.0037219627338618546 0.00635853188646268
104523856 -0.0037234220767186155 0.0062977555579582616
104553618 -0.0037127196795592042 0.006237773138923883
104583380 -0.0036939583646742485 0.006180727275815697
104613142 -0.0036947163252637858 0.006132908616827894
104642904 -0.003684554455010371 0.0060710162466734545
104672666 -0.0036837815695860265 0.006015029892217797
104702428 -0.003669925752425895 0.005959222313616161
104732190 -0.003657574545359998 0.005951429236015415
104761952 -0.0036363726858238575 0.006015189067986816
104791714 -0.0036208835925138393 0.006087307598506335
104821476 -0.003598227150032897 0.006160699524067339
104851238 -0.0035917624675350234 0.0062306061789076305
104881000 -0.003562941533814939 0.006306783699454021
104910762 -0.003532919424233165 0.006380116967310341
104940524 -0.0035158032226438405 0.006456352705950318
104970286 -0.003487044709049686 0.006525726399082966
105000048 -0.003471438691256489 0.006603621019357938
