# HZ S RI R 50
90000000 -0.0001430331186367881 0.005118235057831015
90029762 -5.043847104044453e-05 0.005143719979817954
90059524 -0.00026521221410085203 0.005152190601516311
90089286 -0.00012948128583234136 0.005189647251527984
90119048 -0.0002917861430910577 0.005203354383241072
90148810 -0.00015549645842553397 0.005241542979706704
90178572 -0.0001754960120806177 0.0052699599967561605
90208334 -0.00013527072175736644 0.005298737863465377
90238096 -0.0003523253790665317 0.005306624810362969
90267858 -0.0002178436068325326 0.005342705379415568
90297620 -0.00020559172876697426 0.005317127580607939
90327382 -0.0001279589954639474 0.005276595384203464
90357144 -0.00014978314385017365 0.005220420752295201
90386906 -7.477930986956322e-05 0.00517508828032352
90416668 -0.00018515189913489362 0.005102348033114713
90446430 -6.81718341311989e-05 0.005070078774032303
90476192 2.5705784899704793e-06 0.005027977527872008
90505954 3.181774701210735e-05 0.0049783819559923465
90535716 5.956502893557979e-06 0.004926561365343973
90565478 8.248832048322272e-05 0.004901934195798547
90595240 8.018575922992268e-05 0.004898103997368113
90625002 0.00012685050187467663 0.004904055089157716
90654764 0.00021335909475212307 0.004903537643847712
90684526 0.00025925245847530326 0.004905026074381882
90714288 0.0002639485983711011 0.004898607034934223
90744050 0.00030191811338321794 0.004905849349573729
90773812 0.00039448395827526805 0.0048995322345504215
90803574 0.00039982075248617136 0.0048984715156219225
90833336 0.00048599224103481497 0.004892388269523263
90863098 0.0005134195732108726 0.004859523891222295
90892860 0.0005005760783789312 0.004825087889831704
90922622 0.0005669612825136932 0.004790416587631483
90952384 0.0005922428785964533 0.004758365151504918
90982146 0.0005797857390709508 0.0047256559263106875
91011908 0.0006434587884960915 0.004688686946796903
91041670 0.0006294473865506654 0.004658685359036367
91071432 0.0006595567719134056 0.004623264837640045
91101194 0.0005742878089159847 0.004585981440242977
91130956 0.0007235691114843758 0.00459008375862638
91160718 0.0006811842781010087 0.004608312409552173
91190480 0.0006688418032780113 0.004625891333741683
91220242 0.0005488547869882754 0.004637291453938582
91250004 0.0006488307050690302 0.0046633265918108015
91279766 0.0005249782515844941 0.004672510504167763
91309528 0.000667126352633146 0.004697409073098429
91339290 0.0006207365579999649 0.004712383481944959
91369052 0.0006459423972280194 0.004729340405375047
91398814 0.000499509353387947 0.0047207595862484774
91428576 0.0006134015717250048 0.004695664250108908
91458338 0.0006639712064751376 0.004656719385845314
91488100 0.0006428665540538662 0.004623462939760597
91517862 0.0006537337905824749 0.004581742023058064
91547624 0.0007025265343147158 0.004549062225412856
91577386 0.0007164852353024309 0.004517236644453976
91607148 0.0006953746850311736 0.004471923064016572
91636910 0.0007084119517341558 0.004433129150123538
91666672 0.0007544757201332281 0.004408150077666582
91696434 0.0008028710835940846 0.004383542693265909
91726196 0.0009095200677331593 0.0043609680842630096
91755958 0.0009859153456520824 0.004331204775466153
91785720 0.0010316577369151913 0.004304582040268144
91815482 0.001136439102493724 0.004279630533543197
91845244 0.0012162721394651113 0.00424652667360409
91875006 0.001253987125487584 0.004211549143355955
91904768 0.0012384003364170498 0.004177105245427369
91934530 0.0014042776183857096 0.0041293347348296565
91964292 0.0014426749872210203 0.004117721033196299
91994054 0.0014944067831981296 0.004102000489697664
92023816 0.001396983110094564 0.004102925553587837
92053578 0.001508329542395188 0.004084647160469729
92083340 0.0015247241991498016 0.004074739075535371
92113102 0.0015750408197091029 0.0040574525424870965
92142864 0.0015741507698003982 0.004050341921189146
92172626 0.001626721385957627 0.0040329848408483275
92202388 0.0015319913646035849 0.004028767538489985
92232150 0.0016210080580142494 0.003988835666053057
92261912 0.0015278890965436233 0.0039290784426254804
92291674 0.0016300240134903786 0.003850750498473735
92321436 0.0015898073658074106 0.0037850947415564587
92351198 0.0016073884707329235 0.003712360398112269
92380960 0.0015690202952800473 0.003651905003335035
92410722 0.0015605319964160803 0.00357865773896395
92440484 0.0015710971575237894 0.0035114383223107115
92470246 0.0015680688176768188 0.0034391773439819756
92500008 0.0015325003201934193 0.0033803760135665824
92529770 0.001552727665688344 0.0033543876716117626
92559532 0.0015934100425238705 0.003316442901122852
92589294 0.0015915441854265076 0.0032933381890528947
92619056 0.0016377490055549658 0.0032600790339447406
92648818 0.0016494515534146968 0.0032302194405013263
92678580 0.0016506722812249409 0.0031973478569630094
92708342 0.0016925390613192655 0.0031582258715150534
92738104 0.001714255714969593 0.0031242862601235234
92767866 0.0017013016543828978 0.003088898067810416
92797628 0.0017507248967800137 0.003028673211782712
92827390 0.0017563998450555905 0.0029771502682591163
92857152 0.0017949309031976383 0.002906117763744692
92886914 0.001780132868906929 0.002867781593225937
92916676 0.0018831092780617344 0.002779037362238767
92946438 0.0018932354768071398 0.002713795672321816
92976200 0.0019104288162773968 0.0026434681142086997
93005962 0.0018858367595521884 0.0025870089308598436
93035724 0.0019581000838605135 0.002490165933681334
93065486 0.001943548167147927 0.0024186055443289967
93095248 0.0020443272746038625 0.002291791432407166
93125010 0.0020628351626408702 0.0021899676642376255
93154772 0.0020984523441836466 0.002080073586101288
93184534 0.002064039785549009 0.0019976666115283925
93214296 0.0022113325974583075 0.0017625083512491334
93244058 0.0021104179619111834 0.0017676962755318317
93273820 0.0021568882959767765 0.0016167842608564484
93303582 0.0021433167440898728 0.001512037596665586
93333344 0.002158498794460862 0.0013931083168887842
93363106 0.0020924876438219962 0.0013481709691283436
93392868 0.0020732307193962675 0.0012519671680190731
93422630 0.002037310480867716 0.0012010964946216867
93452392 0.0019976032261297947 0.0011209194381254775
93482154 0.0019456259018656272 0.0010650776339807136
93511916 0.001914310042346362 0.0009840015077220918
93541678 0.001866686265973591 0.0008922668221945339
93571440 0.0018130108557030274 0.000834675638456276
93601202 0.0017587121459812494 0.0007405074864116945
93630964 0.0017236432590488657 0.0006424412795374365
93660726 0.0016643046968978113 0.0005372351716842523
93690488 0.00156787135434619 0.00038268523797414664
93720250 0.001573869964169915 0.0002949829825216739
93750012 0.001506358035297859 0.00018490018103857893
93779774 0.0014418443970975385 7.359199851428965e-05
93809536 0.0013911849341949928 -2.619555117536524e-05
93839298 0.0013045261160128528 -0.0001298819544603964
93869060 0.0012048539167978287 -0.000268351076301726
93898822 0.0011169756543442432 -0.0003629432408213626
93928584 0.0010120841037322122 -0.00045488588920938286
93958346 0.0009092030081805628 -0.0005615191231220672
93988108 0.0008380343305041165 -0.0006382775041614211
94017870 0.0007206766844321549 -0.000718019955928557
94047632 0.0005899078159064353 -0.0007903712325326385
94077394 0.0004687582016776014 -0.000892154018999099
94107156 0.00035161888377267537 -0.000951290079846361
94136918 0.00023438871173498253 -0.0010329424217438907
94166680 9.569277961296052e-05 -0.001084576380744435
94196442 -1.4252960624717943e-05 -0.0012259129611116584
94226204 -9.993614310785673e-05 -0.001370606295368901
94255966 -0.0003058127649243814 -0.0014981012442844982
94285728 -0.0004588048748709151 -0.0016657354043382857
94315490 -0.0006440407317233511 -0.0018503074460757777
94345252 -0.0008547491141758468 -0.0020460479002058075
94375014 -0.0010526955247629071 -0.002268727521910087
94404776 -0.001338586383050157 -0.0025388591037821344
94434538 -0.0015761184135402414 -0.0028420464634118575
94464300 -0.001776698172077033 -0.00285991282435455
94494062 -0.0019644778531221784 -0.002675487571257043
94523824 -0.0020781188898542093 -0.0024818267708100546
94553586 -0.002156448681332955 -0.0023427394514523307
94583348 -0.0022828400686135345 -0.002152928195894451
94613110 -0.0023192377246390224 -0.0020275042159912074
94642872 -0.002396253891325314 -0.001883174800340756
94672634 -0.002448390160258706 -0.0017246750735570439
94702396 -0.0024792132195296003 -0.0016231457578991903
94732158 -0.0025547663760448623 -0.001519990290533294
94761920 -0.0026646179651668026 -0.0014605377901756628
94791682 -0.0027697008843035804 -0.0014701341860214948
94821444 -0.0029091053441181506 -0.0013342271656469455
94851206 -0.0030232837056893 -0.0013312891879340401
94880968 -0.0031237959496130787 -0.0011767440835549047
94910730 -0.0032224327962529498 -0.0011225218593782745
94940492 -0.0033171409441128045 -0.00102725388101983
94970254 -0.003395903475114198 -0.0010180494714612195
95000016 -0.0034827455142625655 -0.0008824120038403279
95029778 -0.003589628543193883 -0.0008986151124474041
95059540 -0.003721029943162813 -0.0007858381942991142
95089302 -0.003821365786147191 -0.0007256104127705298
95119064 -0.003942883194760271 -0.000668334412384302
95148826 -0.004069861390495501 -0.0006527475831640022
95178588 -0.004168427256523564 -0.000553507478868906
95208350 -0.004271709112569559 -0.0004974390579966188
95238112 -0.004359187262132865 -0.000398698004121339
95267874 -0.0044930001679068495 -0.00037344546287650554
95297636 -0.004544237384123895 -0.0002757981146047691
95327398 -0.004625044834428275 -0.00019552878088023614
95357160 -0.004706956306624271 -0.00012349677589758857
95386922 -0.004786533958086934 -2.7619989554907553e-05
95416684 -0.004835664365126466 5.897996288577114e-05
95446446 -0.004907092033668762 0.00013708201447188844
95476208 -0.004966439362200974 0.00022153953804787655
95505970 -0.005024389655663545 0.00029890613400123365
95535732 -0.005084033987952739 0.00038698598936704837
95565494 -0.005116907063268397 0.0004868514223418535
95595256 -0.00515181234222738 0.0005907640101007348
95625018 -0.005212241134387679 0.0006965272417675509
95654780 -0.0052502714038346904 0.0008022392763548433
95684542 -0.005291734043761398 0.0009243928849045646
95714304 -0.005318439889580182 0.001012939407026872
95744066 -0.005353145513128586 0.0011215408937546478
95773828 -0.005368012707141223 0.0012155142197472078
95803590 -0.005387162731256976 0.0013505679401460925
95833352 -0.005421231704745098 0.0014408118497508213
95863114 -0.0053864342943478645 0.0015236527241589788
95892876 -0.005369328618476492 0.0015916555683138428
95922638 -0.005353335400478611 0.0016508511514906794
95952400 -0.005311718304464809 0.0017526666995362672
95982162 -0.005282803587242381 0.001818451405614707
96011924 -0.00601051569482841 0.0010616054004020691
96041686 -0.005137011621863773 0.002001846077567542
96071448 -0.005203830347685549 0.002005421974999471
96101210 -0.0051614366972995655 0.0020703635545001424
96130972 -0.0059382371398249015 0.001367459487601412
96160734 -0.005185463503783762 0.0021898133066209687
96190496 -0.005195076118349612 0.00226224249794266
96220258 -0.005244586984484987 0.0023036209578205158
96250020 -0.005410229764356511 0.002302441760478346
96279782 -0.005250566492881578 0.002433337920114042
96309544 -0.005285945936621573 0.0024912578024069375
96339306 -0.0054871058847576195 0.002475961590167087
96369068 -0.005327559325118859 0.0025982346489065336
96398830 -0.005015002384397018 0.002812164445144642
96428592 -0.005322216061713315 0.002756432668112232
96458354 -0.005321425038473109 0.002843725836556705
96488116 -0.004553426835064677 0.003414832422444653
96517878 -0.00532417580842987 0.003002669600120788
96547640 -0.005331456531525112 0.003070083497525208
96577402 -0.005342138755186241 0.003135780759931451
96607164 -0.005330011648317612 0.0032433209787472274
96636926 -0.004519045410368495 0.00375377826741013
96666688 -0.005347700683992143 0.0033933768969437467
96696450 -0.005286183087320015 0.003396317410790334
96726212 -0.005264522873677185 0.0033923720059889657
96755974 -0.006092608236718757 0.002855104778342866
96785736 -0.005172868716531773 0.0034004220969230756
96815498 -0.006008704093571055 0.002880243670877982
96845260 -0.0051034160440734545 0.0033998572031315815
96875022 -0.005055999022063611 0.00339796559358223
96904784 -0.005032661243778459 0.0033798582492105323
96934546 -0.004933919451192627 0.0034203024996386283
96964308 -0.00498160676077989 0.003391785579515378
96994070 -0.004985490170691425 0.0033833707818592394
97023832 -0.004265700410466245 0.0037670055168556407
97053594 -0.005018438399521808 0.003392573229333796
97083356 -0.005051942956259218 0.003384636601784516
97113118 -0.0058551753693249714 0.0029457788139750068
97142880 -0.005067809700184122 0.003384694681325581
97172642 -0.004341927661666467 0.0037436679410299545
97202404 -0.005118157929083872 0.003370104863819814
97232166 -0.005095526294766766 0.0033926671107202683
97261928 -0.00510180452908107 0.003430425515434922
97291690 -0.005065109346585235 0.0035031705600864246
97321452 -0.005055778599365951 0.0035405465603927043
97351214 -0.005054002060290251 0.0035872334362833953
97380976 -0.005048028313570264 0.003629199777863769
97410738 -0.00501812115617934 0.0036972444658035677
97440500 -0.004987123671816118 0.003737290709471533
97470262 -0.004229152047804379 0.00408300862653401
97500024 -0.004949499934601934 0.0038330854215958988
97529786 -0.0049811445227996385 0.003863028521461333
97559548 -0.0042030066305837836 0.00422058481655349
97589310 -0.004951383465070584 0.0039790763784560024
97619072 -0.004860443475275321 0.004058377918299534
97648834 -0.004960727296096322 0.004054897388265064
97678596 -0.004932447154634739 0.004110698132563528
97708358 -0.004172692318653276 0.00444088217041032
97738120 -0.004931414003494954 0.004210521469968128
97767882 -0.0049252695843668495 0.004255585911572588
97797644 -0.005664022240420563 0.003984157284643905
97827406 -0.004825969677326823 0.004324629660734955
97857168 -0.0047107360254013755 0.004368538444688398
97886930 -0.004630390847922481 0.004400382786885624
97916692 -0.005298052154383669 0.004171074856332452
97946454 -0.004473517622494196 0.004461541253668991
97976216 -0.005122297457051894 0.004236974786188676
98005978 -0.003662167894258237 0.004722201870661928
98035740 -0.004262925112164892 0.004540862280016382
98065502 -0.004272244274035459 0.004555522340573382
98095264 -0.0043425620817583695 0.004576043738560629
98125026 -0.004375453927712484 0.0046219565399037875
98154788 -0.003755523589194037 0.004837804110364963
98184550 -0.004513355260701129 0.00465005423951518
98214312 -0.00458677303330444 0.004670334506051696
98244074 -0.003938598163322667 0.00488990514591423
98273836 -0.004774212782467275 0.004681196253850645
98303598 -0.004819134682234942 0.004700789007676676
98333360 -0.004898102884526632 0.004713832557472219
98363122 -0.0049131708246059795 0.004684485189867679
98392884 -0.004858336327280598 0.004670493253953431
98422646 -0.004879839740941495 0.004633221625633735
98452408 -0.0048590783964703906 0.004623635828978894
98482170 -0.004809218597809439 0.0046128077590370355
98511932 -0.004830409306700175 0.0045897596717298615
98541694 -0.0040648439549806 0.004795509245082453
98571456 -0.00476254579977574 0.004560995774454658
98601218 -0.005465520610243809 0.004293191565567465
98630980 -0.004712478362275624 0.0045487855131997835
98660742 -0.004652904959177653 0.004608971821185938
98690504 -0.0039045666315277935 0.004841454863819768
98720266 -0.0052732982654710644 0.0044657233634348825
98750028 -0.004516757439335991 0.0047299312830158535
98779790 -0.004465889940223653 0.00477245644664397
98809552 -0.004452755919653361 0.004804198429879026
98839314 -0.004366612932679221 0.004852016458142602
98869076 -0.00435322356810463 0.004883354102607129
98898838 -0.0049827536392952985 0.004749439835607043
98928600 -0.004300744333976132 0.004933139121927565
98958362 -0.005010769216860748 0.004788523659601661
98988124 -0.004375192865263564 0.004972487040517396
99017886 -0.004349674505377786 0.005004713129364932
99047648 -0.0043984257607520205 0.005004006183034282
99077410 -0.004366965775859296 0.005034559474353147
99107172 -0.004387385177603112 0.005048472870680116
99136934 -0.004455569394198693 0.0050548593044877094
99166696 -0.004467777670491169 0.005076483067828485
99196458 -0.0044208546380913065 0.00506803507711745
99226220 -0.004416315864833617 0.005050917647690646
99255982 -0.004298906312990698 0.005027834185321163
99285744 -0.004427037099685695 0.005003062791639523
99315506 -0.004311992907813915 0.004953233572651646
99345268 -0.004318596821180573 0.004934376921940435
99375030 -0.004443122638409911 0.0049433400373150695
99404792 -0.004588867057364461 0.004884833763195368
99434554 -0.004500787203463196 0.004885210124926382
99464316 -0.004654480471535476 0.004983832142958049
99494078 -0.004368006054085233 0.004970334622632241
99523840 -0.00423821858404742 0.005035504157487312
99553602 -0.004154140030391368 0.005094289819151676
99583364 -0.004706117027387391 0.00499185664069488
99613126 -0.003346928008744431 0.0053172327250373495
99642888 -0.003920806131966709 0.0052377848105138024
99672650 -0.0038366193078439373 0.005282892074994172
99702412 -0.00434877456717397 0.005212595422649095
99732174 -0.003710300632528996 0.0053425951580481435
99761936 -0.003597254025829039 0.005344312755598301
99791698 -0.0038507934023927198 0.00528136262599913
99821460 -0.003837510904917782 0.005245402295411067
99851222 -0.003935032591568863 0.0052346179001383185
99880984 -0.00452271082956302 0.005089480694038486
99910746 -0.0039502630014909374 0.005180903637226849
99940508 -0.0045932659015091495 0.005017514831645447
99970270 -0.0040308605501877546 0.005116459470958968
100000032 -0.00406803633170672 0.005095086328070266
100029794 -0.004057923364144809 0.005101388805400241
100059556 -0.0040372081368896875 0.005114131635397832
100089318 -0.004020046435109441 0.0051140845274881075
100119080 -0.004003249404508365 0.005126475411582748
100148842 -0.00408045374789138 0.005112864676208681
100178604 -0.003974767085280533 0.0051397459444723565
100208366 -0.003956584382060995 0.0051504205152591185
100238128 -0.003948177072770518 0.005152379853965773
100267890 -0.003925494490231141 0.005167550394418494
100297652 -0.0039199992837852925 0.005179441729017128
100327414 -0.003926769400181564 0.005181267340140895
100357176 -0.003934262765318463 0.005184301176680291
100386938 -0.0039270254884318555 0.005188569750020784
100416700 -0.003939225950136532 0.005197024615610038
100446462 -0.003936188947797632 0.0051988245345483105
100476224 -0.0039412345439943 0.005201730339998224
100505986 -0.003943581990095689 0.005201027703233185
100535748 -0.003946674048135504 0.005210054635644177
100565510 -0.003977240052447013 0.00521638145645632
100595272 -0.004009017104097885 0.005264701556325156
100625034 -0.004059910531717881 0.00529541688616838
100654796 -0.00410220466649697 0.0053307269740736464
100684558 -0.004157653875082167 0.005373754380437052
100714320 -0.004205205760122381 0.0054147276490555335
100744082 -0.00425720811260835 0.005462453435333954
100773844 -0.00431900006476496 0.005491897818058457
100803606 -0.004371386776246153 0.005534135699188214
100833368 -0.004432305482909623 0.005576901904717003
100863130 -0.004375360786018874 0.005572923689704163
100892892 -0.00432365729053827 0.0055513029386979745
100922654 -0.004273245660759692 0.005541696579702227
100952416 -0.0042268057575110905 0.005538857470708208
100982178 -0.004169628082291722 0.005515276433025164
101011940 -0.004125870872967531 0.005508233140624219
101041702 -0.004067735632122266 0.005500062845748314
101071464 -0.004033557481590674 0.005482715199532609
101101226 -0.003981552047034808 0.005458931960562508
101130988 -0.003969203359568135 0.005458764920775932
101160750 -0.003973966553817213 0.005456255540688319
101190512 -0.003981322590228241 0.005444165156126781
101220274 -0.00398933194564475 0.005432343127919353
101250036 -0.0039843270331536874 0.005432626401425201
101279798 -0.003996255642757179 0.005426936072116038
101309560 -0.004000907401418562 0.00542536586823388
101339322 -0.004001889879303405 0.0054239416102560885
101369084 -0.004000749920690409 0.005407935332033747
101398846 -0.003995666845006832 0.00541799555366775
101428608 -0.003925595654039582 0.0054834257792164155
101458370 -0.0038717200700595167 0.005538709339458256
101488132 -0.0038122917852442097 0.005592315838436323
101517894 -0.00375070685189593 0.005653818162666851
101547656 -0.0036867096910824346 0.005701893639668078
101577418 -0.003625724834994539 0.00576188201453603
101607180 -0.0035598615531862044 0.005807079555665331
101636942 -0.0034852440879611707 0.0058634373621160715
101666704 -0.003417136340035689 0.005907922870122398
101696466 -0.003514645005173774 0.005860567149861991
101726228 -0.003613095056443161 0.005811800705510124
101755990 -0.003712466844218834 0.005763135305775794
101785752 -0.003796384296541456 0.005706972873365425
101815514 -0.0038873854361597088 0.005650614266670769
101845276 -0.0039697017835214985 0.005588321180719774
101875038 -0.004068554813608633 0.005520137189240095
101904800 -0.004145359992474332 0.0054558906373183775
101934562 -0.004222059462331155 0.005383876543901679
101964324 -0.004198682431475285 0.005386361715695107
101994086 -0.004114041803530655 0.005428378007088144
102023848 -0.004027960052077573 0.0054859734643846626
102053610 -0.003949411328311268 0.005516879316639706
102083372 -0.0038663145485988244 0.005552830119634445
102113134 -0.0035350827362098437 0.005581473925971179
102142896 -0.0036834051724357214 0.005622317773716197
102172658 -0.0036053841787919987 0.0056587402082620905
102202420 -0.00351441818378929 0.005687933559104203
102232182 -0.0034909748800539993 0.005718200851667542
102261944 -0.0035701969343392495 0.005746892733838864
102291706 -0.0036659258708643143 0.005773362038040103
102321468 -0.003749144123868463 0.0058036084168135195
102351230 -0.003843484396447511 0.005824724846491251
102380992 -0.0037706071617830193 0.0058163676171355426
102410754 -0.003878822364200107 0.005842736961929839
102440516 -0.00397563798533124 0.005854751523643353
102470278 -0.004249583062617612 0.005901837784497358
102500040 -0.004344315783616726 0.0059151718497739815
102529802 -0.004291789480753554 0.005925930762084873
102559564 -0.0042397891089347405 0.00594425438029686
102589326 -0.0041895405788684266 0.005960357151255671
102619088 -0.004127094764051664 0.0059729628086249
102648850 -0.0040799935651353895 0.005988950983433295
102678612 -0.004024237955753498 0.006000329450037213
102708374 -0.003973162462600216 0.00601626914478065
102738136 -0.00391000685297079 0.006028241381103773
102767898 -0.00378412965266017 0.006031814086665458
102797660 -0.003839121564403846 0.006020040091927079
102827422 -0.0038264451742961547 0.0059912891060896105
102857184 -0.003821091266456167 0.0059564930102548935
102886946 -0.003809281241156676 0.00591821784818189
102916708 -0.0037988731706715233 0.005899237812742477
102946470 -0.0037875138276896336 0.005872871276379479
102976232 -0.003770803110178059 0.005846520845597885
103005994 -0.0037612595734888587 0.005818554702460742
103035756 -0.0037567336143832825 0.005792549073452441
103065518 -0.0037477180033754325 0.005773025275130726
103095280 -0.003753999979431223 0.005799918834301765
103125042 -0.00375748271727124 0.005829022520157229
103154804 -0.003759275024218249 0.005851177668576977
103184566 -0.003759857597112627 0.005878689907169613
103214328 -0.00376184721538409 0.005907256361003428
103244090 -0.0037610488281841956 0.005928715364840648
103273852 -0.003776232277356858 0.0059547562050074245
103303614 -0.00377137101187437 0.005979127618518279
103333376 -0.0037835015545855675 0.006007215727722859
103363138 -0.0037002869396144653 0.005999363780130774
103392900 -0.0036036591961231598 0.006002206077953668
103422662 -0.003520487000694808 0.005993168046619609
103452424 -0.0034431860215908476 0.005981412622959949
103482186 -0.003350401574026604 0.005971384485100812
103511948 -0.0032769530957942735 0.005955710640964507
103541710 -0.0031913541374894243 0.005948822095348257
103571472 -0.0031184558600330686 0.005926935124714194
103601234 -0.00303460956053078 0.005909604671233162
103630996 -0.003043634592858764 0.005904103849316689
103660758 -0.0030868469795835287 0.00589897604737346
103690520 -0.0031392185565506593 0.005901302615719156
103720282 -0.0031862281071224356 0.005893232986977044
103750044 -0.0032337040873895934 0.00588273669459109
103779806 -0.003281298830080216 0.005875108509420885
103809568 -0.0033335337969161685 0.005861955990199426
103839330 -0.0033844311732993326 0.0058580282916977
103869092 -0.0034291370385374446 0.0058337417028811326
103898854 -0.003480477844174869 0.0058440737362023135
103928616 -0.003515475449693589 0.005859754723649562
103958378 -0.003552984882976853 0.005885960708887295
103988140 -0.003591724074341685 0.005899823681430538
104017902 -0.0036295605258732802 0.00592719868770561
104047664 -0.003682515945774383 0.005950914407700808
104077426 -0.0037158931553406735 0.005977027050521721
104107188 -0.0037668396382780005 0.00599367179619432
104136950 -0.003806786160413477 0.006012508977869559
104166712 -0.0038466944561564432 0.006033748605418112
104196474 -0.003842142371934454 0.0060748088270884786
104226236 -0.0038302327333868923 0.0061206833898193366
104255998 -0.003813962292415618 0.0061617160984093955
104285760 -0.0038079504021730597 0.006204934862620727
104315522 -0.003793378202899036 0.006252710318514304
104345284 -0.0037881801052606417 0.00629983291854662
104375046 -0.0037682355585264074 0.006343912278279634
104404808 -0.0037572335031182446 0.006380275348189947
104434570 -0.003741177145926163 0.0064263933172787535
104464332 -0.0037283190009817363 0.006406026561411913
104494094 -0.003725367604920532 0.006343118398829489
104523856 -0.0037233256489579993 0.006289319855474376
104553618 -0.0037212916506246907 0.006234251805885867
104583380 -0.003708417176000612 0.0061740494836735925
104613142 -0.003700731184774829 0.006122947442304546
104642904 -0.003701000027451205 0.006064977131752722
104672666 -0.0036902527751312667 0.006013284188159437
104702428 -0.003685365744062839 0.005963949733962824
104732190 -0.0036680977635608265 0.005947294054934596
104761952 -0.003649347216524427 0.0060140319132014
104791714 -0.0036334923024436746 0.006089544906819901
104821476 -0.003613058287245866 0.00616023368294092
104851238 -0.003585337992327407 0.006228037582948021
104881000 -0.003575951138669805 0.006301107423112725
104910762 -0.0035431414993085885 0.006373948038310519
104940524 -0.0035314696973708652 0.006442942844067422
104970286 -0.0035071820887662315 0.006513009792681432
105000048 -0.003483662443500877 0.006594502203285983
