# HZ S RI R 50
90000000 -7.098050838634458e-05 0.005095589172445824
90029762 -3.12514330912877e-05 0.00512983398283951
90059524 -0.0002455602323754234 0.005135005196051027
90089286 -0.00010777358758852563 0.005170325560113522
90119048 -0.00026951056077046244 0.005188584371845618
90148810 -0.0001343799701434016 0.005222427153903469
90178572 -0.000146822423393055 0.005250102705440777
90208334 -0.00011098504663572669 0.005277589145657348
90238096 -0.00032472551904672015 0.005282838258436225
90267858 -0.00019297338164114968 0.0053216325519572965
90297620 -0.00017855139085679833 0.005294532433803947
90327382 -0.00010070088341072835 0.0052490362222001735
90357144 -0.00012265547011898223 0.0051970068368668325
90386906 -4.550655703080761e-05 0.005147165376977324
90416668 -0.00020699358787712704 0.005083690557927579
90446430 -4.3626364602536875e-05 0.0050450812463182235
90476192 2.914054362003857e-05 0.004999366366203396
90505954 5.634886687133137e-05 0.004956610393505178
90535716 3.4316770447929394e-05 0.0049028311324698
90565478 0.0001085275481332286 0.004876369931103506
90595240 0.00011027856224880007 0.004868630542982644
90625002 0.00015568580035541118 0.004874746310975831
90654764 0.0002392797362986268 0.004876565230843334
90684526 0.00028657228775796255 0.004874125045426707
90714288 0.0002875458594664236 0.004873637839896406
90744050 0.00033178894467581795 0.004867078336531589
90773812 0.0004235351682961666 0.004868790458831428
90803574 0.0004266610119695916 0.004863999777208716
90833336 0.000514668824083328 0.004859631555999974
90863098 0.0005411589416674086 0.004826839030652943
90892860 0.0005267577177537093 0.0047923817263757
90922622 0.000597141696378578 0.004756281459559837
90952384 0.0006238270096130209 0.0047186510343471206
90982146 0.0006097039462698004 0.004682914051995832
91011908 0.0006770242909041923 0.00465332336271814
91041670 0.0006623443842083502 0.004615719974284419
91071432 0.0006898901989188965 0.004583361773215708
91101194 0.000601928488977185 0.004550982178841045
91130956 0.0007546492197161805 0.004546944816313462
91160718 0.0007119400549846721 0.004568243251440594
91190480 0.0006983947934560384 0.004584158512277951
91220242 0.0005789272114910799 0.004599508190837317
91250004 0.0006892374684845816 0.004615759632394156
91279766 0.0005655182365875656 0.004635586500039214
91309528 0.0007007763684019402 0.004653616766411088
91339290 0.0006565172687999852 0.004665703755220773
91369052 0.0006865829664253921 0.004683004573505765
91398814 0.0005338200567687089 0.0046752796059542755
91428576 0.0006508836726031648 0.004640880841823392
91458338 0.0007016615912527398 0.00461066252374571
91488100 0.0006877739223176267 0.004568021176390969
91517862 0.0006923101381364225 0.004534839171520203
91547624 0.0007443095948100753 0.004495869910416222
91577386 0.0007534464819205341 0.004459127102084035
91607148 0.0007335840171583217 0.004423180148646208
91636910 0.0007487734851176868 0.004378798529306507
91666672 0.0007934132211693296 0.0043482666255818285
91696434 0.0008385737734088165 0.004322791214803402
91726196 0.0009497887058352637 0.004303321360691011
91755958 0.0010277280010820217 0.0042695036509853455
91785720 0.0010678196449650176 0.004243903300207079
91815482 0.001174813803489979 0.004208740093882513
91845244 0.0012486377804092207 0.004172539467872708
91875006 0.0012921458266987973 0.004139991442520775
91904768 0.0012746666090089106 0.004107203145033378
91934530 0.0014371546334970007 0.004057264878854456
91964292 0.0014798836840184194 0.0040376066890615014
91994054 0.0015322954575331899 0.0040224739294094924
92023816 0.0014307728186209844 0.004023556940298608
92053578 0.0015453020146532772 0.004002408582926279
92083340 0.0015598116333636314 0.003990753169316811
92113102 0.001613530573497017 0.003972187037719459
92142864 0.0016091053468421958 0.003955455029107663
92172626 0.0016566145736475971 0.003939130904653615
92202388 0.0015687513795103621 0.003937031016581239
92232150 0.0016542286947638892 0.003894781296161658
92261912 0.001568248489875676 0.003826802942408127
92291674 0.0016602984369566115 0.003745490741496125
92321436 0.0016247306958017407 0.003684974092264792
92351198 0.001637248998694566 0.0036058535229640527
92380960 0.0016001328008790538 0.003540803003315249
92410722 0.0015862650017668524 0.0034793341628704373
92440484 0.0016029489023218224 0.0034021861074860966
92470246 0.0015994642085844794 0.003329601548703926
92500008 0.0015617857970062702 0.0032568735999464284
92529770 0.0015788846389303555 0.0032316907323505914
92559532 0.0016223108572746545 0.003205690202466529
92589294 0.0016231234372728685 0.0031729846611560793
92619056 0.0016524404444812682 0.0031382504601397605
92648818 0.0016706094752570691 0.0031021956991946413
92678580 0.001671269181156017 0.0030672616564334522
92708342 0.001712270144254524 0.0030259560091661286
92738104 0.0017247272204329134 0.00298679421949958
92767866 0.0017301951438178653 0.0029389070138411215
92797628 0.0017755598513952123 0.0028881260989767573
92827390 0.0017873093200899998 0.002825787271360864
92857152 0.0018173395324173605 0.002766459590220131
92886914 0.0017953500834282554 0.0027028434054623897
92916676 0.0018935788316183342 0.0026218267191627535
92946438 0.0018893255000190542 0.0025503202038018973
92976200 0.0019133262779254727 0.0024771391309422667
93005962 0.0018946959776719248 0.0023965836175634616
93035724 0.0019625186363510347 0.002299833707585607
93065486 0.001932846886463969 0.0022295855442364763
93095248 0.0020218261043421465 0.002102782633231965
93125010 0.0020293933670720676 0.0019987343641457932
93154772 0.0020710148113003463 0.0018787100249489435
93184534 0.0020353928101309086 0.0017959842269985205
93214296 0.0020740883771834247 0.0016542775882930274
93244058 0.0020492988294614945 0.0015527911686038399
93273820 0.0020782953102862598 0.0014315465157906757
93303582 0.0020729174401879586 0.0012980643749651952
93333344 0.0020641014783550193 0.0011692994445910599
93363106 0.0020231749388277508 0.0011024729713551842
93392868 0.0019851501832002915 0.0010427273054200127
93422630 0.0019385166988377435 0.0009599281443248295
93452392 0.0018921468055714552 0.0008901739862989468
93482154 0.0018342821461963291 0.0008224909838468008
93511916 0.0017831839823077783 0.0007522972046128814
93541678 0.001741497840851285 0.0006570820986466893
93571440 0.0016683161697930884 0.0005818133414018804
93601202 0.0016114332272539136 0.0004981328480462082
93630964 0.0015759216350829444 0.0003922117979567203
93660726 0.0015094524964025975 0.00028427426462663397
93690488 0.0014434626783430124 0.00015888387382185127
93720250 0.0013816583722124902 6.040376592291848e-05
93750012 0.0013222371839318266 -5.19796209033244e-05
93779774 0.0012346373102167837 -0.0001530224339371245
93809536 0.0011689116585822089 -0.0002650763293816496
93839298 0.0010351758678284174 -0.00036676109043173746
93869060 0.0009359897992820546 -0.00047705628969285305
93898822 0.0008289515255987364 -0.0005589454152403347
93928584 0.0007252452617632399 -0.0006498330640723401
93958346 0.0006147192220881606 -0.0007252243553541142
93988108 0.0005341359169300828 -0.0008348071672499319
94017870 0.00038880117109889046 -0.0008944616060598036
94047632 0.0002998208928243593 -0.0009824143153490078
94077394 0.0001325457141803996 -0.0010425803139873311
94107156 8.322938603833835e-06 -0.001088123307771343
94136918 -0.00014255122720683864 -0.0011371290638511487
94166680 -0.0002607405400115898 -0.0012094994611381261
94196442 -0.0004007359923453844 -0.0013443854810961757
94226204 -0.0005509383357913295 -0.0014760626850427224
94255966 -0.0007612129423772235 -0.0015711871797415072
94285728 -0.0009306702208832366 -0.001714380575257255
94315490 -0.00116239592974081 -0.0019430068480785765
94345252 -0.0014232088111072565 -0.0020955228313697095
94375014 -0.0016628611463575297 -0.002345557171034828
94404776 -0.0019769287130491724 -0.00257397481835819
94434538 -0.0022869809049016585 -0.0029323133128674656
94464300 -0.002470715991293156 -0.002899836726072549
94494062 -0.002584889830367134 -0.0026664017034034294
94523824 -0.002662898140905096 -0.0024537033994261963
94553586 -0.0026943401869764356 -0.002247714304128429
94583348 -0.0027509467494104614 -0.002050769007479316
94613110 -0.0028161252798580283 -0.001908333651187658
94642872 -0.00282919537870683 -0.0017756847910023893
94672634 -0.002860111286083454 -0.0015701582816216432
94702396 -0.0028674120538122287 -0.0014629976272154148
94732158 -0.002918981388309548 -0.0013735362192197668
94761920 -0.003016575349603158 -0.0012874526206548692
94791682 -0.003118362807577482 -0.0012923964159516146
94821444 -0.0032129388909025772 -0.001153377721221499
94851206 -0.0033297154658384516 -0.0011217203287273135
94880968 -0.0034036845862377907 -0.0009709804103859706
94910730 -0.003492231472252522 -0.0008901399529711705
94940492 -0.0035813713098612476 -0.0008007052557616496
94970254 -0.0036622401898173678 -0.000782218960128506
95000016 -0.0037162850721756393 -0.0006660637378755418
95029778 -0.003834696554417496 -0.0006384151954097364
95059540 -0.003935392119695501 -0.000515796920242211
95089302 -0.004050080904409445 -0.00047416608819867643
95119064 -0.004117852325182388 -0.00037487825774591184
95148826 -0.004272261672442087 -0.0003923654496880653
95178588 -0.004339646294792979 -0.00027470298590760766
95208350 -0.004436517173701403 -0.00022230383062363905
95238112 -0.004522282741658831 -0.000129212116355751
95267874 -0.00461360585048338 -8.411470623261396e-05
95297636 -0.004689331426024249 -8.347626071346563e-06
95327398 -0.004752931755805851 8.574171885497635e-05
95357160 -0.004780281734782235 0.00023242314205904906
95386922 -0.004825824396405717 0.0003329989108289407
95416684 -0.0048698296957503445 0.0004219157772360255
95446446 -0.0049287660461594385 0.0004969002089305598
95476208 -0.004988660300382524 0.0005757310634710255
95505970 -0.005023340671910093 0.0006377254077222293
95535732 -0.005072486498597854 0.0007271931725620519
95565494 -0.005112993929719112 0.0008294915792509219
95595256 -0.005207970097417482 0.0008587212926776785
95625018 -0.005234180863231897 0.0009525767933203492
95654780 -0.005268894612608222 0.0010602334089265689
95684542 -0.005302218844855698 0.0011689092254021888
95714304 -0.005311398332194616 0.0012568491484650749
95744066 -0.005343519711267767 0.0013729663140491326
95773828 -0.005380687886709546 0.0014621578719200762
95803590 -0.0053676020926047355 0.0015746656527441546
95833352 -0.005398441607169534 0.0016641192975755399
95863114 -0.005363392260424016 0.0017387861062729715
95892876 -0.005323632085243896 0.001817988040894937
95922638 -0.0053112608868745486 0.0018936251624815676
95952400 -0.005270884608064164 0.0019439090783847323
95982162 -0.0052390207423106275 0.0020105232084896368
96011924 -0.006069913018029221 0.0011988139103178102
96041686 -0.005262370426993578 0.002068804156466238
96071448 -0.0052444914549210145 0.00213602065108381
96101210 -0.005200028130834584 0.002181765903327585
96130972 -0.0059877881713637305 0.0014967150951411842
96160734 -0.005222809204410888 0.002311743177296655
96190496 -0.005233686241874888 0.0023714224032870285
96220258 -0.00523055446280403 0.002424813230295063
96250020 -0.0051633323115348375 0.0025339018224892905
96279782 -0.005183045584267643 0.0025778160977137925
96309544 -0.0052066720436064065 0.0026473566635373145
96339306 -0.00521137049245114 0.0027038001762565212
96369068 -0.00523900167080012 0.002749298642641002
96398830 -0.00524656164654966 0.002809499213249128
96428592 -0.005245985400144484 0.0028935820972249525
96458354 -0.00524261160126005 0.002973176366435595
96488116 -0.004469611671356519 0.003506930699708537
96517878 -0.005247772158875761 0.0031277243404105016
96547640 -0.005251770400219581 0.003198872664533634
96577402 -0.005251699022746138 0.0032769124076916715
96607164 -0.005246792538746963 0.0033439620282226736
96636926 -0.004453319784478785 0.0038345896714085635
96666688 -0.005255848009835172 0.003492925126118479
96696450 -0.0051985045252372205 0.0035025800702701993
96726212 -0.005183783073254066 0.003492931649268686
96755974 -0.006005205530481212 0.0029905120229822093
96785736 -0.005083029412963344 0.0034725920956724544
96815498 -0.005915502121066591 0.00299710011482885
96845260 -0.005022178311801463 0.0034749582148241856
96875022 -0.004969544744424363 0.003481769754862185
96904784 -0.004949721413318568 0.003467967586526384
96934546 -0.004853011655788155 0.0034846851390901478
96964308 -0.00489684181517104 0.003468444704333641
96994070 -0.004912006400046661 0.0034537090771151733
97023832 -0.004189109436686379 0.0038078986776865424
97053594 -0.004946202459198734 0.0034544100517064735
97083356 -0.004980478211703095 0.0034458945872027327
97113118 -0.005780079506919073 0.0030093483976193843
97142880 -0.004987462041936763 0.0034470791279368556
97172642 -0.0042821360945209525 0.003794577468989827
97202404 -0.005037178550646903 0.0034199456586054278
97232166 -0.005021340390016888 0.0034437598650792467
97261928 -0.005030684167827114 0.0034913695061950774
97291690 -0.004995610147308786 0.003546406767596569
97321452 -0.004986081808334137 0.0035879841794755687
97351214 -0.004987830138555893 0.003619159064620687
97380976 -0.004980170291330986 0.0036713932119050506
97410738 -0.004932056850247818 0.0037254593851688876
97440500 -0.004916420049621525 0.0037746248409193306
97470262 -0.0041767104152425375 0.004117861451629567
97500024 -0.004877877079197261 0.003858191294305024
97529786 -0.004913003246329926 0.003902702294629102
97559548 -0.004143573242123696 0.004244096583340729
97589310 -0.004879608582346758 0.004001511263245602
97619072 -0.004804598264335737 0.004068903718301222
97648834 -0.004905528821543745 0.004084601516957009
97678596 -0.004872276367533125 0.004140856618022293
97708358 -0.004127172510182616 0.004445132875434474
97738120 -0.004871976721428046 0.004229014633730857
97767882 -0.004867400458629724 0.004272500840763202
97797644 -0.00560789939215554 0.004008724865001317
97827406 -0.004762798876863777 0.004350590717404704
97857168 -0.004648797121171197 0.00438359609124302
97886930 -0.004575647464048982 0.00441429283341346
97916692 -0.005239925119033355 0.004178931034609974
97946454 -0.0044312367780336885 0.004476562951540858
97976216 -0.005064283797249094 0.0042543823496057455
98005978 -0.003617764700941139 0.004737708800835733
98035740 -0.004220147337804002 0.004552221203938753
98065502 -0.004222511587800052 0.004558777873587654
98095264 -0.004296796106368424 0.004587538259771683
98125026 -0.0043353789409979575 0.004614851144381719
98154788 -0.0037226753703267956 0.004833810093145501
98184550 -0.004474175132252255 0.004645231956214292
98214312 -0.004551392490694225 0.004662109189554832
98244074 -0.0039060535748040117 0.0048955881832555
98273836 -0.004731427941981228 0.004679437410880731
98303598 -0.004774350828526709 0.004703074702523944
98333360 -0.004855846075645365 0.004714487218874638
98363122 -0.004882520083262296 0.004684581993838714
98392884 -0.0048197070717503464 0.004675990432247809
98422646 -0.00484467772973111 0.004644864791183724
98452408 -0.004832633398417217 0.004626254520772569
98482170 -0.0047842352979586625 0.0046093492587619906
98511932 -0.004803754733683516 0.004584199692178053
98541694 -0.004030028529995462 0.004797011716512284
98571456 -0.004730133171923917 0.004551040475513144
98601218 -0.005427938432603152 0.004289384488486294
98630980 -0.004677543225460549 0.004553218029047424
98660742 -0.004634254953367028 0.004592875919528615
98690504 -0.0038826434890220102 0.004843389934841467
98720266 -0.005245279562630798 0.004461664357622215
98750028 -0.004495092811416702 0.004731356968418958
98779790 -0.004442708843688092 0.004772511491811056
98809552 -0.0044426764918220835 0.00479527657092545
98839314 -0.0043486820808696525 0.004842802337229507
98869076 -0.004346810540463809 0.0048711472023483735
98898838 -0.004949723255677337 0.004740922412077081
98928600 -0.004277849333424706 0.004934371712966428
98958362 -0.004996688646758785 0.004781255286847245
98988124 -0.00435484796011983 0.004962603538407662
99017886 -0.00433997011185563 0.004998256857740534
99047648 -0.00439292450322678 0.004993196710571344
99077410 -0.004359136418889122 0.005023519819952878
99107172 -0.0043784552860977426 0.005049462155095222
99136934 -0.0044540242342818274 0.005049422302490155
99166696 -0.004464640995713338 0.005061355338167072
99196458 -0.004421378702502511 0.005064047128799535
99226220 -0.004413273455906734 0.005038992244554196
99255982 -0.004475925598650354 0.005007739524392944
99285744 -0.004433750060213817 0.004998584849948146
99315506 -0.004491639341693542 0.0049695087719908585
99345268 -0.004491237288676133 0.004940540852771313
99375030 -0.004442302197583742 0.00493378473257398
99404792 -0.0044990893108345555 0.004902863606715791
99434554 -0.004505847209893142 0.004875748166283957
99464316 -0.004395204327628752 0.004919033837248333
99494078 -0.004376792233669059 0.004967688478809664
99523840 -0.004240383014934889 0.005040403866742112
99553602 -0.004167864410247248 0.005090797928105671
99583364 -0.004701912737777348 0.004994456651640926
99613126 -0.0033481507258049477 0.005314023364329841
99642888 -0.003926100676846776 0.005236589628805434
99672650 -0.00384189692972012 0.005287296626081321
99702412 -0.0043510084581338945 0.0052037320820088944
99732174 -0.0037215635189591758 0.005343292423838465
99761936 -0.0035998534566669973 0.005351997182992835
99791698 -0.003859927809886496 0.005281343905074012
99821460 -0.0038384078691349652 0.005268686742396371
99851222 -0.00394177843922267 0.005233909158125159
99880984 -0.004530088187054383 0.005089860402304532
99910746 -0.003962017370126303 0.005185648687260182
99940508 -0.004605686771046404 0.005032761913052611
99970270 -0.004036820687153715 0.00511809747713864
100000032 -0.00408938267322985 0.005109252789141008
100029794 -0.004057525599900087 0.005095028142011068
100059556 -0.004040532061246368 0.005113161030014257
100089318 -0.004021798805346438 0.005129722676857728
100119080 -0.004011621771929528 0.005139391442846304
100148842 -0.003995449545865973 0.0051452610118896715
100178604 -0.003977218983953443 0.005157027191417476
100208366 -0.003969755038802736 0.005162650062970553
100238128 -0.003947774571284701 0.0051801900160380705
100267890 -0.003934369262795236 0.005178328632138493
100297652 -0.003921679626699737 0.005183067560048381
100327414 -0.003933199456200418 0.0051927468814504
100357176 -0.003929909126838075 0.00519407250537258
100386938 -0.0039472757796467604 0.005193841368030857
100416700 -0.003944315521560256 0.005194454225277262
100446462 -0.003944757544708023 0.005204237330525454
100476224 -0.0039435657719527 0.005209436737436972
100505986 -0.00394929619154862 0.005208237357134106
100535748 -0.003952470819997317 0.00521603750594127
100565510 -0.003966005746152801 0.005233733013926299
100595272 -0.004017719370758202 0.005269893058271732
100625034 -0.004067045461364639 0.005305154844190543
100654796 -0.00411367890904683 0.005349481775198834
100684558 -0.0041583870148135995 0.005396565854660954
100714320 -0.004216958628921266 0.005425046925979391
100744082 -0.004263618914021903 0.005468077358796693
100773844 -0.004316724047584463 0.00551934959821604
100803606 -0.004378448567597131 0.005559069597489916
100833368 -0.004437207217320249 0.0055965933571964326
100863130 -0.004377686620801755 0.005583222109215937
100892892 -0.004325253351180175 0.005575511358000464
100922654 -0.004280530455195449 0.005563142388994326
100952416 -0.0042316686131385565 0.005550032917690672
100982178 -0.004177081679794091 0.005543703701174286
101011940 -0.004131118327387814 0.0055224210593120115
101041702 -0.004083887181166208 0.005508586192792834
101071464 -0.004042716295288748 0.005500232399800226
101101226 -0.003988197366298601 0.0054906290887641925
101130988 -0.003969885285393967 0.0054769219435001305
101160750 -0.003972868423941964 0.005470349026300113
101190512 -0.0039850566919325025 0.005470288926123957
101220274 -0.0039872698819995315 0.005461522843129387
101250036 -0.003993569810513966 0.005454124279875631
101279798 -0.0039982471761600665 0.0054489437409504125
101309560 -0.004001866916428073 0.005444626001270209
101339322 -0.004014196632165903 0.005439563918431486
101369084 -0.004009254750006427 0.005428355045867717
101398846 -0.003993438563784158 0.005440457479461032
101428608 -0.003937810227188001 0.005502132938750023
101458370 -0.0038792303230907594 0.0055572618905163325
101488132 -0.0038230515345397805 0.00561557042288995
101517894 -0.003751308904680342 0.0056737259899394925
101547656 -0.0036844688914698174 0.005723686617950953
101577418 -0.0036247957356744624 0.00577843730236473
101607180 -0.003563128654629784 0.005829289934669269
101636942 -0.0034892364979744496 0.0058823284396877845
101666704 -0.003416447824281568 0.005933198382840577
101696466 -0.003523260876005732 0.005879687968152101
101726228 -0.003619434712028711 0.005838519653693391
101755990 -0.003701891302416303 0.005783688123904567
101785752 -0.003800250747835004 0.005726134251440899
101815514 -0.0038878134650501906 0.005672082950613654
101845276 -0.0039734179841763966 0.005608131130250829
101875038 -0.004057905307023525 0.005535604512418058
101904800 -0.004135667766315212 0.00547058638534756
101934562 -0.004221862310550174 0.005394200659845655
101964324 -0.004191868989612956 0.0054088787445408576
101994086 -0.00410797064908559 0.005449824668259195
102023848 -0.004025392819434758 0.005488784021556214
102053610 -0.00394108977539872 0.0055391049102434895
102083372 -0.0038522443417089353 0.005576904838307533
102113134 -0.003769924387619659 0.005600605946422905
102142896 -0.003688289531471501 0.005643424159921661
102172658 -0.003599146717368299 0.005675107811561642
102202420 -0.0035139918789757058 0.005711846663173395
102232182 -0.0034840256244113945 0.005736985960520063
102261944 -0.003565775636937246 0.005756781041907801
102291706 -0.003809647133525655 0.005826487549680918
102321468 -0.0037476998572589524 0.005811036056822935
102351230 -0.0036721815201308395 0.005814501241001516
102380992 -0.003931654990557834 0.005864470438862699
102410754 -0.004028777590984421 0.005885674365795416
102440516 -0.004135235139263884 0.005899844979593055
102470278 -0.0042357945349480565 0.005910436521786919
102500040 -0.004335835661165534 0.005926866541927745
102529802 -0.0042895036743639415 0.005946701898686442
102559564 -0.0042284700689324325 0.005957928349358285
102589326 -0.004091684996903083 0.005992974074404015
102619088 -0.00412038984611461 0.005986029621008213
102648850 -0.004064242253993619 0.005999177000752968
102678612 -0.004011808865412611 0.006012273981206497
102708374 -0.003957825608181548 0.00602524457874349
102738136 -0.0033959283756039515 0.005852447569108599
102767898 -0.003855445671182708 0.006055045426700235
102797660 -0.0038186488093492634 0.006035260321516036
102827422 -0.0038172435891705315 0.006001654205524671
102857184 -0.003799742280893705 0.005970579892723529
102886946 -0.0038004527136784585 0.005950238210154959
102916708 -0.003786872432157267 0.005917547699967907
102946470 -0.0037739489895721717 0.005880976501398865
102976232 -0.0037572481781860496 0.00586160234745143
103005994 -0.0037570825954909787 0.005826540617191986
103035756 -0.0037427227702578796 0.0057980758125307135
103065518 -0.003731420577000646 0.005791349576760359
103095280 -0.003746709765909114 0.0058098365499579755
103125042 -0.0037409567893548963 0.005832896737191293
103154804 -0.0037524628809909606 0.005864131247077428
103184566 -0.0037485138962528807 0.00589511066599924
103214328 -0.0037445192883529318 0.005917446178215723
103244090 -0.003756571584035814 0.00593631119556409
103273852 -0.0037619341446644846 0.0059729616698579275
103303614 -0.00376704166185973 0.0059942044159126
103333376 -0.0037750269047818327 0.006021625169896681
103363138 -0.0036843319542296067 0.006017371425954744
103392900 -0.003586341141105234 0.00600669409414314
103422662 -0.003507790339298361 0.0059996067613929
103452424 -0.0034252234942252196 0.005990066249684126
103482186 -0.0033406107443795818 0.0059869426140197754
103511948 -0.0032641861357511274 0.005968954699327694
103541710 -0.003186310393610602 0.005951514171616958
103571472 -0.0031063594010014984 0.005943298197157024
103601234 -0.003029746560637996 0.005927254890234555
103630996 -0.003039997579159097 0.005916787781162118
103660758 -0.003076376215501063 0.005914096395345588
103690520 -0.0031280150751629068 0.0059069935025885005
103720282 -0.0031687727739317336 0.005901397417694136
103750044 -0.003227028756200272 0.005896625843047884
103779806 -0.0032722023858907856 0.005883656620163737
103809568 -0.0033172151146123527 0.005874656809909774
103839330 -0.003369426774390118 0.005856823252318452
103869092 -0.003414383681398836 0.005853108734030929
103898854 -0.0034681146599437863 0.005854084415229746
103928616 -0.003504536557261454 0.005875005013995456
103958378 -0.0035408521604138655 0.0058953858018804765
103988140 -0.003588665245668788 0.005914705733256358
104017902 -0.0036136618851380906 0.005940773083553276
104047664 -0.0036660640435504832 0.005959779012016151
104077426 -0.003705805123039009 0.005984475617939389
104107188 -0.003754565129972034 0.006007186551138157
104136950 -0.003796750993524496 0.006025939325283585
104166712 -0.0038394889941523107 0.006044460026534945
104196474 -0.0038322001824718246 0.006090724159380162
104226236 -0.0038144160795023927 0.006132450136804547
104255998 -0.0038075265896294016 0.0061721589469414
104285760 -0.003792361530000227 0.0062121143305929995
104315522 -0.0037817716173835854 0.006263806008339264
104345284 -0.0037726463186536566 0.0063017461887830495
104375046 -0.0037582195762340767 0.0063454088346768705
104404808 -0.0037477689521248888 0.006396708776793873
104434570 -0.0037252348562535186 0.006436378065595185
104464332 -0.0037190664857330155 0.006412198422957152
104494094 -0.0037135895388802163 0.0063572651168098465
104523856 -0.003712150584019514 0.006299019173280797
104553618 -0.00369682054601451 0.006241686569535332
104583380 -0.003705689859380783 0.006184359500117238
104613142 -0.0036926250894610217 0.0061233726183181824
104642904 -0.00368470266554916 0.006076196220235392
104672666 -0.0036841061506183155 0.006018249439960986
104702428 -0.003671059288186174 0.005963306032032941
104732190 -0.0036644649498184657 0.005957427091759212
104761952 -0.0036375601674507045 0.006022786962974255
104791714 -0.0036187738553646203 0.006090374414359305
104821476 -0.0036029059987587853 0.006166491154837374
104851238 -0.003586027900354461 0.006236571163699106
104881000 -0.0035623946677916128 0.006314863131464329
104910762 -0.003545427608371869 0.006382012952487744
104940524 -0.0035120857379946423 0.006449853140435929
104970286 -0.0034849974178070174 0.006527579811456925
105000048 -0.0034641415392943596 0.006601290453663782
