# HZ S RI R 50
90000000 -5.648697309737039e-05 0.005084074894110644
90029762 -1.651222768837909e-05 0.005111871284591441
90059524 -0.00023040826802842956 0.0051243528006919194
90089286 -9.145116871813478e-05 0.00516088970083389
90119048 -0.0002551347800471753 0.005170541940203729
90148810 -0.00011851831294546535 0.00521237954405235
90178572 -0.0001318113926232891 0.005234936641634791
90208334 -9.407019283528862e-05 0.005263310027288967
90238096 -0.0003117415319442706 0.005271255007562945
90267858 -0.00017276152023207195 0.00530953782275221
90297620 -0.00015971619466900153 0.005280898118038072
90327382 -8.168078289467594e-05 0.0052319196966911195
90357144 -0.0001046099132908827 0.005177728125570229
90386906 -3.3142443023338455e-05 0.005135134807280721
90416668 -0.00018930165262314363 0.005066217289477741
90446430 -2.2313459622395565e-05 0.005033789954302982
90476192 4.466980272542248e-05 0.004988852819677318
90505954 6.92479153235352e-05 0.004934337026938992
90535716 5.412796738984039e-05 0.00488677523196632
90565478 0.00012637751380211338 0.004853301721370442
90595240 0.0001243604219054627 0.004861132628206081
90625002 0.00017194181100130208 0.004858122682560385
90654764 0.0002581226769231058 0.0048564791798626165
90684526 0.00030233980798538183 0.0048614214660733365
90714288 0.0003039778428751828 0.00485251498629509
90744050 0.00035126251831818544 0.0048506193392085775
90773812 0.0004412175207236958 0.004848261100148919
90803574 0.00044273081515522474 0.004842196036084212
90833336 0.000531450663607725 0.0048394480516176725
90863098 0.0005542320050087702 0.004806625186650012
90892860 0.0005467864972693312 0.004770450332528863
90922622 0.0006109629167972416 0.004736274323887312
90952384 0.0006386132042324808 0.004702033768059112
90982146 0.000623863087413723 0.004665654822352572
91011908 0.000689777603365436 0.004632083015050811
91041670 0.0006795346589364325 0.004595443891408699
91071432 0.0007069913345165837 0.004559824847133104
91101194 0.0006184488461012317 0.00452366186554201
91130956 0.000771030842952268 0.004522827199452355
91160718 0.000727209233144981 0.004540158979017783
91190480 0.0007209679538820371 0.00456070033387084
91220242 0.0005944620792303451 0.004570794983701056
91250004 0.0007003981857124517 0.004592832070604806
91279766 0.0005820759273714063 0.004603832528111885
91309528 0.0007217942699619472 0.004624747645061221
91339290 0.0006764511449651049 0.004636843869883477
91369052 0.0007045806426731644 0.004648889237488233
91398814 0.000551388997447973 0.004646008825278551
91428576 0.0006716599267265579 0.004614274192110194
91458338 0.0007225180226965012 0.004578456979851256
91488100 0.0006987833746882308 0.004540830792762188
91517862 0.0007109556764475461 0.004506371474186555
91547624 0.0007603846827045909 0.004461179636485182
91577386 0.0007743659029856996 0.004432541588919387
91607148 0.0007549490358480774 0.004386657846020565
91636910 0.000771057700691351 0.004352837272704465
91666672 0.0008135994668502303 0.004316664323063299
91696434 0.0008591927231399799 0.004288191317706715
91726196 0.0009688888318383672 0.004262076792088719
91755958 0.001042830033273334 0.004236258886644506
91785720 0.0010824362552992596 0.0042048580072053445
91815482 0.001188187248082414 0.0041721339474353695
91845244 0.0012655671692166945 0.0041406560115058505
91875006 0.0013075462273436957 0.004098043134487639
91904768 0.0012916479176454747 0.004064886786560318
91934530 0.0014537190123711003 0.00401397326890443
91964292 0.0014939835768158808 0.003992841089664501
91994054 0.001546879813536831 0.003983471548007491
92023816 0.0014475952095343433 0.003980994363508542
92053578 0.0015576064545717871 0.003951619523483805
92083340 0.0015759192734336159 0.003939349866134098
92113102 0.0016289642431186644 0.00392338377519587
92142864 0.001625759721886541 0.0039103291165375345
92172626 0.0016665318082878845 0.0038849916380583596
92202388 0.0015773889580750473 0.003882045527252231
92232150 0.0016756417370619701 0.0038335261509715346
92261912 0.001576037752924116 0.0037815057586921452
92291674 0.0016764990632488943 0.003692507867942809
92321436 0.0016406453235866506 0.003623872249424958
92351198 0.0016473905790113346 0.0035528987772659774
92380960 0.0016100582028033999 0.0034896505892587832
92410722 0.0015992933362492358 0.003421115710708767
92440484 0.0016148466786147992 0.0033452047336431836
92470246 0.001602348610209422 0.0032720170377237338
92500008 0.0015722859770941624 0.003204225629672033
92529770 0.001590995465023811 0.0031767292880753753
92559532 0.0016268691651837163 0.0031503121765896346
92589294 0.0016265203369472015 0.003107230501469169
92619056 0.0016649974248412372 0.0030747172488133855
92648818 0.00168570623322227 0.0030429492507617795
92678580 0.0016764941194762318 0.003002981574987409
92708342 0.0017143769855539773 0.002955678767583982
92738104 0.0017329821139381537 0.0029251575349225852
92767866 0.0017316995196638635 0.0028783681586508148
92797628 0.0017750331334456446 0.002818353986340466
92827390 0.001788167428954962 0.0027531900682217594
92857152 0.0018098679228062717 0.002689143011978436
92886914 0.0017870703279676398 0.0026312199869699196
92916676 0.0018811302723178622 0.002535492540970253
92946438 0.0018855939718362442 0.00246720911765378
92976200 0.0019005990431985303 0.0023927424541817285
93005962 0.0018658441852972898 0.002342421481423962
93035724 0.0019339954557775908 0.002230777495684796
93065486 0.0019036935419752634 0.002164153914801436
93095248 0.0019893051939063448 0.0020311313306117878
93125010 0.00199342749536824 0.001925352758436324
93154772 0.002028120687076789 0.001811475443872558
93184534 0.0019813589090049172 0.001720923038948308
93214296 0.002038304130138499 0.001594298386439398
93244058 0.0019988868628817913 0.0015042704415282368
93273820 0.0020259810669028613 0.0013571452567214802
93303582 0.0020159099651634754 0.0012376390632037905
93333344 0.002004919648688012 0.0011165066013511225
93363106 0.0019653945722463437 0.0010430444866932529
93392868 0.0019203244755798931 0.0009845894259613405
93422630 0.0018740276789796023 0.0009075796045022899
93452392 0.0018306814395040291 0.0008317640346784111
93482154 0.0017740132482817266 0.0007593747312574764
93511916 0.001714477397705156 0.0006708780204284494
93541678 0.001665897895548508 0.0006020288855458982
93571440 0.0016180228774073605 0.0005217642306800166
93601202 0.0015441747157286803 0.00044957350294109213
93630964 0.001486429437642666 0.0003362146367517242
93660726 0.0014439567447552303 0.00021858347761158895
93690488 0.0013594704367309494 0.00011507534328761473
93720250 0.0012964245505703775 4.92472890608697e-06
93750012 0.0012108710950209489 -9.272913805280684e-05
93779774 0.0011374471888388105 -0.0002005217339521165
93809536 0.001067017287256715 -0.0002974210902199736
93839298 0.0009490664900275872 -0.0004072605134042076
93869060 0.0008473537826960149 -0.0004867585491545273
93898822 0.0007351860299498911 -0.0005817761658113169
93928584 0.0006462998771297444 -0.0006713938803101651
93958346 0.0005287906876068152 -0.0007386021939028549
93988108 0.0004347410328885114 -0.0008289196008355614
94017870 0.00028834555472279316 -0.000908920213703588
94047632 0.00020703829479991884 -0.0009737190681519113
94077394 4.27212111125499e-05 -0.001036858647650771
94107156 -9.37773693164441e-05 -0.0010823931970178
94136918 -0.0002269867758840358 -0.0011349520215909673
94166680 -0.0003486381882470256 -0.0011892653262801356
94196442 -0.0004892400966750792 -0.0012998745669962329
94226204 -0.0006215864730063438 -0.001458126019100939
94255966 -0.0008457010116545698 -0.0015594264165340007
94285728 -0.0010411633290985805 -0.0017151836516306142
94315490 -0.0012657033102242803 -0.0018858454591101196
94345252 -0.0015353986182162478 -0.0020786600270293063
94375014 -0.0017792170500156236 -0.0022935693034148055
94404776 -0.002067968744188371 -0.0025520265008979093
94434538 -0.0024148059145430545 -0.0028897169611319822
94464300 -0.002574537445521707 -0.002858860742311993
94494062 -0.0026762024465217474 -0.002597839923142378
94523824 -0.002744415979509308 -0.0023740406301343236
94553586 -0.002794410669277331 -0.002243879620527748
94583348 -0.0028570926403665995 -0.0019980469625427567
94613110 -0.00287531744517429 -0.0018573099538410536
94642872 -0.0028974852154705546 -0.0016138221208631715
94672634 -0.002906561002675171 -0.001530558662224075
94702396 -0.002930186814976439 -0.0013987880017821248
94732158 -0.0029381970426996004 -0.0013158975457895688
94761920 -0.0030606970574087017 -0.0012437458212334921
94791682 -0.003172741366051689 -0.0012285954781980693
94821444 -0.0032615912639719943 -0.0010993768425372815
94851206 -0.0033545487371920333 -0.0010600612617447708
94880968 -0.0034361767133535286 -0.0009283341695353227
94910730 -0.003508608295331541 -0.0008477695360077726
94940492 -0.0035727010663983367 -0.0007537207215804579
94970254 -0.0036703708830176807 -0.0007323988946719744
95000016 -0.0037254493835123955 -0.0006090644384019333
95029778 -0.0038547389689575343 -0.0005930777424991795
95059540 -0.003934256425123325 -0.0004939407008612637
95089302 -0.004038603622888541 -0.0004206550786003462
95119064 -0.004161996807439189 -0.0003524316099901854
95148826 -0.004248473811928218 -0.0003597975869456402
95178588 -0.004347922728180318 -0.0002487126509655154
95208350 -0.004439536122362624 -0.00019237195133735814
95238112 -0.004522582375792075 -0.00010271145809329455
95267874 -0.004609821764595885 -6.771923814536658e-05
95297636 -0.00468356488090096 3.094795515708091e-05
95327398 -0.004753193773026711 0.00010508465156436611
95357160 -0.004816508284403737 0.0001815565231478972
95386922 -0.004868420902156271 0.0002705382150556505
95416684 -0.00494370492469022 0.0003580689592686947
95446446 -0.00499756577789838 0.0004167580003861154
95476208 -0.005035283721106044 0.000532079658058614
95505970 -0.005091237612144949 0.0005888495027401054
95535732 -0.005137734933131722 0.0006708642914058472
95565494 -0.005177539302194089 0.0007556207277571883
95595256 -0.0051987651964434485 0.0008719893083516125
95625018 -0.005260077314393819 0.0009747674449279009
95654780 -0.005273365080650399 0.0010757000052279368
95684542 -0.005297383227390599 0.0011742708791954968
95714304 -0.005325376396490345 0.0012716765908772764
95744066 -0.005345422734411971 0.0013717969523667824
95773828 -0.005371446581278991 0.0014768816046925686
95803590 -0.005367426900013648 0.0015936484027877212
95833352 -0.005392511380451794 0.0016668142992835582
95863114 -0.0053550153999375495 0.0017425991352138486
95892876 -0.005323931580685869 0.0018069803991688444
95922638 -0.005298460713095311 0.001892240478256699
95952400 -0.0052541284245206845 0.0019516823958881844
95982162 -0.005241400030138356 0.0020047096131401835
96011924 -0.005979480548949493 0.0012809179894048021
96041686 -0.005166086983556001 0.002138803684148346
96071448 -0.005142824133109474 0.002180992421540183
96101210 -0.0050946063897056235 0.002241732879070162
96130972 -0.0058840779977095345 0.001583279283864763
96160734 -0.005121028231636664 0.0023604128803855567
96190496 -0.005128187519674742 0.0024207982753560293
96220258 -0.005149618935336921 0.002457287183095643
96250020 -0.005161099352357963 0.0025317150465924637
96279782 -0.0051834219696857056 0.0025846074050771316
96309544 -0.005197566327284869 0.002648054728536849
96339306 -0.005199229274518687 0.0027002263930920338
96369068 -0.005233212847825718 0.002746174574353805
96398830 -0.005237594730367227 0.002817850274829152
96428592 -0.005235752477743279 0.0028823991181742645
96458354 -0.005261261702959145 0.00295799696657546
96488116 -0.004478712451028625 0.0034963110916141874
96517878 -0.005249458310161231 0.0031190434327946098
96547640 -0.005252389547731095 0.0031879469501690204
96577402 -0.005272964860554498 0.003262068174738254
96607164 -0.005254634080442866 0.0033459167388115866
96636926 -0.004449447929656898 0.003833126055942257
96666688 -0.005263240999324337 0.0034933418414843306
96696450 -0.005210627895385716 0.003472860991712408
96726212 -0.005185771506768309 0.0034847631951381093
96755974 -0.006011938814883016 0.002980074440001387
96785736 -0.005095764630564637 0.003484906837379483
96815498 -0.00592400385302954 0.002984201987639203
96845260 -0.0050181665864600595 0.003474299970276371
96875022 -0.004987416383653723 0.0034681612354681693
96904784 -0.004957954946212497 0.003448296206030596
96934546 -0.004871692250050152 0.0034858606576967936
96964308 -0.004818517079747816 0.003487870107646757
96994070 -0.0049282147429034135 0.0034527741382906463
97023832 -0.004131422919705543 0.003824876958362211
97053594 -0.0049613507997726064 0.0034595369983469295
97083356 -0.004898651946712135 0.0034880264413057744
97113118 -0.00580129445747523 0.0030102946354773857
97142880 -0.004917761863397254 0.003483444771336959
97172642 -0.0042943668288773175 0.0037927219925677044
97202404 -0.005046064251024962 0.0034267579898898484
97232166 -0.005040323406785426 0.0034425486429660447
97261928 -0.005043012984315953 0.003483987879023582
97291690 -0.005004315575011333 0.0035343394009228137
97321452 -0.004999198690228907 0.003589060260299813
97351214 -0.005002259053021895 0.0036172721965202306
97380976 -0.004982800437174529 0.003683905416674972
97410738 -0.004953833130190317 0.0037337790724702793
97440500 -0.004935289082919464 0.0037748550852236447
97470262 -0.004191158763353317 0.004126448092478419
97500024 -0.0049070746167532665 0.0038571077487825787
97529786 -0.004922117823279792 0.0038991021696304115
97559548 -0.004167439098127362 0.004239376425249734
97589310 -0.00489779307192535 0.003999816964442877
97619072 -0.004808299116912205 0.004071864318753774
97648834 -0.004917775084429877 0.004072828553629392
97678596 -0.004883505252105886 0.004132154878362463
97708358 -0.004148060410840204 0.004452885132818058
97738120 -0.0048890841127051474 0.004230039576293218
97767882 -0.004884342464533137 0.004275567570322972
97797644 -0.005615831092420275 0.004001158841308762
97827406 -0.004781685227257014 0.004351148414408499
97857168 -0.0046755284939661405 0.004386217595723011
97886930 -0.004601398651355288 0.0044184486835280165
97916692 -0.005269383697160942 0.004185036209969671
97946454 -0.0044436926259762395 0.004475106372030611
97976216 -0.005089130676435533 0.004260746656798503
98005978 -0.0036350562046591696 0.00473302822554702
98035740 -0.0042353982235336035 0.004552566954074822
98065502 -0.004247302649212692 0.0045668391521617975
98095264 -0.004309593706397541 0.004596575240702737
98125026 -0.004349724539888646 0.004621120429975669
98154788 -0.003728037643699537 0.004840969874260211
98184550 -0.004486110460102376 0.004651815237847915
98214312 -0.00456355475894173 0.004667442103938634
98244074 -0.003921379620558778 0.004894471985239103
98273836 -0.004759490521339428 0.004685091883443065
98303598 -0.00479188892364582 0.00471793409543531
98333360 -0.0048724036287888135 0.004733349221655508
98363122 -0.004890782378937465 0.004687858388837973
98392884 -0.004834900011037398 0.004689130888976134
98422646 -0.00486171383728434 0.004649987052863874
98452408 -0.004846862287361586 0.004633027429760029
98482170 -0.004802592407091438 0.004618328063061394
98511932 -0.004818920919226756 0.004590146476073111
98541694 -0.0040443438774190365 0.004806119430702507
98571456 -0.004746598445065954 0.00456265631785043
98601218 -0.005449115515601455 0.004307621665320425
98630980 -0.004697249892564387 0.004572834742172464
98660742 -0.004645793867857431 0.004607324966184004
98690504 -0.0038957542286138878 0.004856459895551294
98720266 -0.005258001985265691 0.0044794527986063305
98750028 -0.004501767228340732 0.004731148094981226
98779790 -0.004461044142760527 0.00476310691968818
98809552 -0.004453392379168869 0.004807580071319453
98839314 -0.0043599617724995356 0.00486369976772011
98869076 -0.004353172759027724 0.004885499883022772
98898838 -0.004974836102299933 0.0047540644081984895
98928600 -0.004302011641168421 0.004944790350190829
98958362 -0.005008226757875471 0.004783797484774341
98988124 -0.004368643521452611 0.004970361930493615
99017886 -0.004350274492885699 0.005011082672820618
99047648 -0.004412441641674504 0.005002058677457447
99077410 -0.0042824255580297945 0.005043299757748956
99107172 -0.004392596807778469 0.005050613175499357
99136934 -0.004464907853897845 0.005058858006732694
99166696 -0.004469125876266058 0.005083645134361603
99196458 -0.004431553703399343 0.005074422264259712
99226220 -0.004428715114169934 0.005053499902718749
99255982 -0.004505563213237193 0.0050101966014637934
99285744 -0.004537335901901986 0.005005501106379498
99315506 -0.004495490332681519 0.004978630976700589
99345268 -0.004501496294104033 0.004961329581413914
99375030 -0.004454729169456492 0.004947990187033092
99404792 -0.004331185988614194 0.004905639219154379
99434554 -0.004517378670969389 0.004892550033795237
99464316 -0.004321365630139872 0.004931104539328102
99494078 -0.004383521651514136 0.004985670603469384
99523840 -0.004252069755092275 0.005050833105007339
99553602 -0.004175364092146624 0.005099928102255382
99583364 -0.004718148456151477 0.005008393218114846
99613126 -0.0033580686923146913 0.005332490535619018
99642888 -0.003932097265498632 0.005253950571173428
99672650 -0.0038484964998704977 0.005295230860923521
99702412 -0.004370284501651124 0.005213031219739993
99732174 -0.0037311919256286796 0.005355055455638168
99761936 -0.0036139730789186758 0.005363060630557597
99791698 -0.0038712881570141166 0.005297526350463859
99821460 -0.0038550025675173913 0.005279790347429059
99851222 -0.003950486582794033 0.005238299946224001
99880984 -0.004532838177754123 0.0051097927013995775
99910746 -0.00397351586941197 0.005196812761715335
99940508 -0.004620748392621247 0.00503811593835986
99970270 -0.0040528899719275945 0.005137234175070039
100000032 -0.004090270916411968 0.005115203537178197
100029794 -0.00406466627231957 0.005114578386164253
100059556 -0.004050951077471987 0.005131054630712769
100089318 -0.004042665478907544 0.0051380140271427574
100119080 -0.004024065365380269 0.005139972298423993
100148842 -0.003999608528168972 0.005154052334343505
100178604 -0.00399097386849663 0.005165974627520052
100208366 -0.00396664680577754 0.005164504643090014
100238128 -0.003961812211073504 0.005179388971518611
100267890 -0.00394079615861105 0.005184720233608066
100297652 -0.003944406570012491 0.005187671949691212
100327414 -0.003940288956881681 0.0051893970197190815
100357176 -0.003949207218364275 0.005208951058600232
100386938 -0.0039488763331589054 0.005198188578103419
100416700 -0.003947483284494558 0.005209523392412359
100446462 -0.003951650192259652 0.0052089702665713035
100476224 -0.003949282706995403 0.005217574388683029
100505986 -0.003958933192010213 0.00522520825756236
100535748 -0.003955295831871734 0.005232829375175572
100565510 -0.003975036254383894 0.005242397098503408
100595272 -0.0040193531314504285 0.00528305590659789
100625034 -0.004075959156320781 0.005312908572873664
100654796 -0.004115502946128758 0.005355172466669941
100684558 -0.004164747058753525 0.005397685140216289
100714320 -0.004217987734476752 0.005437933349341368
100744082 -0.004269392117895902 0.005478163401872148
100773844 -0.004318735714151924 0.005513806597560025
100803606 -0.004380654688896989 0.005560482136892859
100833368 -0.00444212053510592 0.005596004478299079
100863130 -0.0043843545524674425 0.005593378425449829
100892892 -0.004330607559082135 0.005575734241238109
100922654 -0.004287902966353866 0.005567622785576958
100952416 -0.004228905162280838 0.005550094303219603
100982178 -0.004185986294047416 0.005535121480290529
101011940 -0.004128937040562003 0.005529918427562566
101041702 -0.004083770087308395 0.005515121153565455
101071464 -0.0040337245365317945 0.005509158442831959
101101226 -0.003984652605045736 0.00548245513147042
101130988 -0.003976356739038808 0.005479083871668823
101160750 -0.0039777696929398235 0.00547208967016303
101190512 -0.003992460914918259 0.0054654570473679455
101220274 -0.003988910715125 0.005461607221268809
101250036 -0.003990386860433315 0.0054596734543914385
101279798 -0.00400355608343083 0.005443673879241026
101309560 -0.0040006247132722455 0.005446208881196451
101339322 -0.004015617326790073 0.005433892296381747
101369084 -0.004022082597631535 0.005419245606055553
101398846 -0.003997752199682459 0.005438252475287864
101428608 -0.003940566989336028 0.0054960571714180355
101458370 -0.003890655677730742 0.005557671791157019
101488132 -0.0038172072153778544 0.0056104193261233976
101517894 -0.0037564410378783256 0.00566986268427014
101547656 -0.003691611518300911 0.005725511263486053
101577418 -0.003625045251662659 0.005773315823546511
101607180 -0.0035698841658688744 0.005822424668084662
101636942 -0.0034991192301710035 0.005873545863916918
101666704 -0.0034305518478539854 0.0059210705658347225
101696466 -0.00352072455628584 0.005879498759708196
101726228 -0.0036220733352237923 0.005831196595745761
101755990 -0.0037142155612234842 0.0057783771529249526
101785752 -0.0038052926600039426 0.005724187633394981
101815514 -0.0038950579492916036 0.0056663501435354575
101845276 -0.003979752299269366 0.0056010293709588465
101875038 -0.0040759384793629845 0.005537226249613572
101904800 -0.004150819324755861 0.005469154219627151
101934562 -0.004237051775898865 0.005388565089549777
101964324 -0.004200293190080617 0.005398354433660205
101994086 -0.004122679636858818 0.005443830319383819
102023848 -0.004032485877766283 0.005489000024919241
102053610 -0.003952235413526532 0.005532982905233116
102083372 -0.0038666228153415717 0.005562979639670235
102113134 -0.003787432015069459 0.005603883945130259
102142896 -0.0036933899818543964 0.005632785958350588
102172658 -0.0036098801087040677 0.005673491996468498
102202420 -0.0035211822481453566 0.005699233705071962
102232182 -0.0034841541205090686 0.005728881816964003
102261944 -0.003581692580870638 0.005755640100496913
102291706 -0.003669671112354834 0.005781856113196936
102321468 -0.003759791933872324 0.005807614733507404
102351230 -0.0038467673944288577 0.005825632940468907
102380992 -0.003947013255603759 0.005848412350983651
102410754 -0.004041845367383848 0.005876654781441153
102440516 -0.004143323788627141 0.005883275337069855
102470278 -0.004338177181663707 0.005904579826935887
102500040 -0.004353782402798527 0.005924933464820332
102529802 -0.004292648324290832 0.005936905898401324
102559564 -0.0042406888366556955 0.005957943454693987
102589326 -0.0041825691056308085 0.005966636927440044
102619088 -0.004136046758830902 0.005982211750718683
102648850 -0.0040897406492135385 0.005997932779717253
102678612 -0.004031045377656427 0.006003242512345943
102708374 -0.003980100778392068 0.006021344125956994
102738136 -0.0039249990869749726 0.006039707321189429
102767898 -0.0038696422761401224 0.006038053481184522
102797660 -0.003845424030782997 0.006023505128029686
102827422 -0.0038339418669643428 0.005997720681061162
102857184 -0.003830895395873597 0.0059665935763350405
102886946 -0.0038196649794761343 0.005937287883752557
102916708 -0.0038024065430348917 0.005908300527309147
102946470 -0.003801744847337768 0.005871965392218139
102976232 -0.0037869887425715726 0.005850742949125985
103005994 -0.0037784123956409836 0.00581837862136123
103035756 -0.0037639478603068237 0.005788951278408801
103065518 -0.003754563372565312 0.005781754384031698
103095280 -0.0037606554796035395 0.005813329353850639
103125042 -0.003764955149173622 0.005826578256151895
103154804 -0.003774603337127763 0.0058557343469030606
103184566 -0.0037713551632111513 0.005888152940996913
103214328 -0.003782394225934171 0.005914175523371621
103244090 -0.0037717053543776928 0.005932260140843224
103273852 -0.0037912201714068185 0.005966989096441319
103303614 -0.0037927654802861585 0.0059933324427981225
103333376 -0.003789792486939855 0.006010542182141641
103363138 -0.0037044533495079832 0.006010275375944124
103392900 -0.003617534849518414 0.005997376943657806
103422662 -0.003534262496138443 0.005994312212582182
103452424 -0.003441817301587003 0.0059843096779474605
103482186 -0.003362597488617566 0.005976558453858226
103511948 -0.003288062742378548 0.0059628826669711095
103541710 -0.0032055925582915707 0.005950157175163733
103571472 -0.0031264679188842803 0.005937244743916529
103601234 -0.003045138339112349 0.005923669016317811
103630996 -0.003060743195208777 0.005916209057335133
103660758 -0.003112033286827774 0.005905224287328778
103690520 -0.0031454035570859526 0.00590188838944061
103720282 -0.0032030064730822127 0.0058978202969086685
103750044 -0.003243351229107846 0.0058853305645099035
103779806 -0.003295810194979031 0.005882441383853201
103809568 -0.00334199509581829 0.005869723452664837
103839330 -0.003394803816956491 0.005861158667646717
103869092 -0.0034394629954102884 0.005848053998038398
103898854 -0.003493096727491094 0.005849275742601091
103928616 -0.00352766363180197 0.005872877501302751
103958378 -0.0035644395299319668 0.005894384130210189
103988140 -0.0036159764705353333 0.005906676532179802
104017902 -0.0036477602060562588 0.005933183610768623
104047664 -0.0037016836751207183 0.005957331062650876
104077426 -0.0037418981594831147 0.005976611643028085
104107188 -0.0037824647697274846 0.0059991752677704445
104136950 -0.0038316778000071928 0.0060240734759555645
104166712 -0.0038725548356275227 0.0060438514898969705
104196474 -0.0038607081653866254 0.006090433838050352
104226236 -0.003852657678169369 0.0061254233546287765
104255998 -0.0038391709219758228 0.006171125465998449
104285760 -0.0038287039387977996 0.006214535545710055
104315522 -0.0038147207544031786 0.006260856935538201
104345284 -0.0038118643570301735 0.006300361613317786
104375046 -0.003789901000608459 0.006348962788411737
104404808 -0.0037821572878986884 0.006392398857251378
104434570 -0.0037627198784913026 0.006440956569208757
104464332 -0.003759847969528339 0.006415457676620769
104494094 -0.0037515512877361254 0.0063568688486327005
104523856 -0.0037496983403737935 0.0062975762997895925
104553618 -0.0037419478752881343 0.0062465575492157465
104583380 -0.0037312221111229396 0.006189395359686128
104613142 -0.003723192078144892 0.006126977357925555
104642904 -0.0037179637962047834 0.006077163334756231
104672666 -0.0037095560804658073 0.006021467617014335
104702428 -0.0037096813909573926 0.005969954694543564
104732190 -0.0036882216811546073 0.005956062070953851
104761952 -0.0036788979121241613 0.006025922367315602
104791714 -0.0036579827542045874 0.006095066395879704
104821476 -0.003636028786070691 0.006165501124823601
104851238 -0.0036197425201968483 0.006241293712495764
104881000 -0.003595130956686695 0.006318900181435879
104910762 -0.0035800161852938602 0.006388094120450648
104940524 -0.003551466545813341 0.00646263790551815
104970286 -0.003531338788247305 0.0065349526570056245
105000048 -0.003489040640971067 0.0066145604543235564
