# HZ S RI R 50
90000000 -2.8028020103474322e-05 0.005064552899292916
90029762 9.148375214264326e-06 0.005091611989665153
90059524 -0.00020080169759411305 0.005100000032542755
90089286 -6.478308218059514e-05 0.005139621863574498
90119048 -0.00022368637580821992 0.005148190299560765
90148810 -8.614960093627363e-05 0.005185190932957963
90178572 -0.00010004336863410245 0.005211078198700646
90208334 -6.93054873309101e-05 0.005239622932280737
90238096 -0.00027969597796228266 0.005247704769747241
90267858 -0.00014305710101849523 0.005281841129674102
90297620 -0.00013176405252496664 0.005256384633511574
90327382 -5.2355588980200436e-05 0.005211957484712155
90357144 -7.43241644805015e-05 0.005155203438305084
90386906 -3.855695820786639e-09 0.005108150643194602
90416668 -0.0001621068513795183 0.005039317240896799
90446430 2.5479166085238995e-06 0.005003675509816154
90476192 7.54073275763388e-05 0.004956971229540029
90505954 0.00010250837979091626 0.0049094396929960015
90535716 8.186482507858488e-05 0.004861083274662422
90565478 0.00015482297847588242 0.0048309238098235415
90595240 0.00015770770038196096 0.004824335247579373
90625002 0.00020272082522475483 0.004826087084281465
90654764 0.0002861788424998369 0.0048270452159658445
90684526 0.00033479582527087484 0.004826859937128789
90714288 0.00033880462082495444 0.0048207159456832875
90744050 0.0003821731703452996 0.004819112172962712
90773812 0.0004664341756097263 0.0048160560426001855
90803574 0.00047110994222106565 0.004810221244515945
90833336 0.0005616112265274345 0.004807166106851164
90863098 0.000590048463543625 0.004773612041275024
90892860 0.0005733683587241675 0.00473188828403228
90922622 0.0006456946627012363 0.004703022838222827
90952384 0.0006701460323392982 0.004664512496139443
90982146 0.000655664232627449 0.00462744053818601
91011908 0.0007230411264757452 0.004595283967415765
91041670 0.00071104156772561 0.004557586929295043
91071432 0.0007363856620804475 0.004517239744271269
91101194 0.000647015729795261 0.0044816265218811146
91130956 0.0008047997688109393 0.004482301138164991
91160718 0.000761743860344807 0.004497534586506116
91190480 0.0007549216737671964 0.004513586876821243
91220242 0.0006343353698320078 0.004526682140493825
91250004 0.0007367671633639722 0.004548546859843837
91279766 0.0006197902049230132 0.004559847012092806
91309528 0.0007562488024058459 0.004577465367346619
91339290 0.0007120200684119925 0.004592529410552756
91369052 0.0007415048566482816 0.0046076112969299175
91398814 0.0005900071816216494 0.004595829690509213
91428576 0.000723027350399614 0.0045616654425028585
91458338 0.0007696841021677761 0.004522010544141509
91488100 0.0007402400058742653 0.004484369981575684
91517862 0.0007524582829772116 0.00444714751370662
91547624 0.0008002979569779693 0.004410693556174466
91577386 0.000814878074490806 0.004373841769013651
91607148 0.0007940560744572621 0.004328987845829492
91636910 0.000807577682877952 0.004289950091265442
91666672 0.0008520044875069986 0.0042555625545746215
91696434 0.0008966260705097544 0.004227871682283957
91726196 0.0010102257981630816 0.004201005658749072
91755958 0.001078778359396214 0.004170052226133043
91785720 0.0011234077823167345 0.004139670634387848
91815482 0.0012303999777600462 0.0041071582371011925
91845244 0.00130612778381827 0.004067250944085087
91875006 0.0013420851935372258 0.0040268547422788875
91904768 0.0013230016250972345 0.003992840223193393
91934530 0.001488844512788328 0.003938902774218641
91964292 0.00152561483489243 0.003919875192957385
91994054 0.0015718821509179872 0.0039053203576872642
92023816 0.0014852777128318553 0.003898532924963436
92053578 0.0015907222204639675 0.003871462116590078
92083340 0.0016161896198381514 0.003853643805134693
92113102 0.0016658432272069654 0.003830621554378005
92142864 0.0016560998896680327 0.0038150493348344853
92172626 0.0017038401555094305 0.0038006298694166023
92202388 0.0016137685875332712 0.0037882045614649703
92232150 0.0017100449532658586 0.0037378764280861826
92261912 0.0016141825404875018 0.0036760202467839356
92291674 0.0017042926086034687 0.0035944766283734757
92321436 0.0016647540684693815 0.0035318013546502083
92351198 0.0016853454835765115 0.0034568838329281444
92380960 0.0016490525580165013 0.003388376815817489
92410722 0.0016316511033444437 0.003320469631227738
92440484 0.001648089758491722 0.0032428847350180036
92470246 0.0016316545666999547 0.003169306265489643
92500008 0.0015968030996654204 0.0031050283545616874
92529770 0.0016209663734822162 0.003064446152738141
92559532 0.0016592527059951716 0.003029932084973681
92589294 0.0016562336423036799 0.002998868754075012
92619056 0.0016994430861471644 0.002954024050013601
92648818 0.0017172022860440634 0.0029259486508486335
92678580 0.0017031323475146106 0.002888658342157662
92708342 0.001750089731851015 0.0028418264770131946
92738104 0.0017664384900006852 0.002799700699217215
92767866 0.0017607359370881536 0.002757403236868135
92797628 0.0017995478205682428 0.002693989222742146
92827390 0.0018102513012429185 0.0026274586898612615
92857152 0.001841968838483042 0.0025538755189966397
92886914 0.0018157616287047104 0.0024950496007875877
92916676 0.0018936942763006994 0.002399660712645592
92946438 0.0019035270333789718 0.0023213044085545085
92976200 0.0019213259589847384 0.0022459009349639083
93005962 0.0019015347900523184 0.0021595256614015644
93035724 0.0019452208270400193 0.0020641467122074707
93065486 0.0019578997138790075 0.001966923692694205
93095248 0.0019994175996324117 0.0018468650626209259
93125010 0.002009293167639338 0.0017399539071085114
93154772 0.002021963904957418 0.0016137614983236688
93184534 0.001994869721958609 0.001531669189477882
93214296 0.0020218602827049253 0.0014058514654146175
93244058 0.001999075088351758 0.0012868955304336023
93273820 0.0020088002901041267 0.0011569038982610206
93303582 0.0019869803780837815 0.0010325111870686011
93333344 0.0019823119067692184 0.00090338993635444
93363106 0.001930783138196547 0.0008328483385205796
93392868 0.0018718368959098522 0.0007642955495854112
93422630 0.0018225053977957808 0.0006955274202983139
93452392 0.0017731712761339833 0.0006112559772222125
93482154 0.0017139755310259096 0.0005361618805035271
93511916 0.001664862548353344 0.0004581496608826042
93541678 0.0016072075399204658 0.00037544867111144616
93571440 0.0015343716379354721 0.00027914605743028625
93601202 0.0014723663775619556 0.00020212358585648712
93630964 0.0014103478090768716 8.427065802683627e-05
93660726 0.00136345125633003 -2.1762902166722213e-05
93690488 0.0012815184976973867 -0.00015307387491235384
93720250 0.0011970721792233558 -0.0002544751069642223
93750012 0.001100303505749507 -0.00035214718781737355
93779774 0.0010086900489232869 -0.00047128780047779947
93809536 0.0009334081095610295 -0.0005544185595844759
93839298 0.0008043965188816805 -0.0006509074251231923
93869060 0.0006774625342482165 -0.0007505436443652141
93898822 0.000576570532135986 -0.0008258336028496252
93928584 0.0004348728459892425 -0.0009126065280447968
93958346 0.00031267944383268697 -0.0009903568411803935
93988108 0.0002322010162907195 -0.0010841703018923687
94017870 7.797327973020866e-05 -0.001135770440423635
94047632 -1.3047903572230229e-05 -0.0012434153718756695
94077394 -0.00019626127777359618 -0.001257947657193613
94107156 -0.0003465101193256435 -0.0013110824851465782
94136918 -0.0004880446674114777 -0.0013704416720338854
94166680 -0.0006404216040826295 -0.0014129164817394011
94196442 -0.0007833227720947256 -0.0015310905936150106
94226204 -0.0009466536835810575 -0.0017158846556406468
94255966 -0.0012021739181089567 -0.0017796922234162346
94285728 -0.001407108798264533 -0.0019811399895369184
94315490 -0.001648422956262337 -0.0021735513054539587
94345252 -0.0019386060805322766 -0.002381812983382687
94375014 -0.0022319259807958847 -0.0026341147386929166
94404776 -0.0025814418252792983 -0.002899513645873294
94434538 -0.0029978440309687024 -0.0032123649367502448
94464300 -0.003140873385815015 -0.003203073096162079
94494062 -0.0032171526698404978 -0.0028585461144187575
94523824 -0.003271100967471971 -0.0026055489613670546
94553586 -0.003260169910946545 -0.0024045839229975704
94583348 -0.0033003978827187124 -0.0021697836501187156
94613110 -0.003301563691820218 -0.0019937849814053287
94642872 -0.003311289308731947 -0.0018116825918341013
94672634 -0.0033097364510958553 -0.0016233995966565867
94702396 -0.003304395048861485 -0.0014672880544524536
94732158 -0.0033341817165590836 -0.0013457888416693962
94761920 -0.003440748457072638 -0.0012890284262188803
94791682 -0.0035445085967414297 -0.0012585061095999437
94821444 -0.003630694219475228 -0.0011044581298708543
94851206 -0.0037250244225633415 -0.001096974169516442
94880968 -0.003789228338666901 -0.0009084213537170349
94910730 -0.003870879569429402 -0.0008394150465648581
94940492 -0.003938494654787643 -0.000717141450525043
94970254 -0.004021223069382148 -0.000710048872154591
95000016 -0.0040611810465706385 -0.0005257362228104513
95029778 -0.004192509181486061 -0.0005310950496111021
95059540 -0.004289529790615117 -0.0004270986031985604
95089302 -0.004378411974896997 -0.0003351150950387424
95119064 -0.004469682695159774 -0.0002712778665013167
95148826 -0.0045966627561522125 -0.00024536412182670143
95178588 -0.00467309917289905 -0.00014369285351994006
95208350 -0.0047722302689764216 -7.101149891144699e-05
95238112 -0.004852121024983663 2.381291665145046e-05
95267874 -0.004945387215237515 7.879461707088697e-05
95297636 -0.005010666243853051 0.00015832354892661798
95327398 -0.005067253698817134 0.0002637176888468163
95357160 -0.0051286456453448455 0.0003425235364421217
95386922 -0.0051763418487654434 0.00043419415164246643
95416684 -0.005223349652054694 0.0005206230751304285
95446446 -0.005273595821886743 0.0005882935193328698
95476208 -0.005325061463036594 0.0006820872375510308
95505970 -0.005362173140651574 0.0007780113122299976
95535732 -0.005414414283413868 0.0008458955774847541
95565494 -0.005439143844189227 0.0009367316802790054
95595256 -0.005455141149112905 0.0010647842165731815
95625018 -0.005488912869396673 0.0011600169458142948
95654780 -0.005518050748889018 0.0012830098793166981
95684542 -0.00552586053250196 0.0013648211868237021
95714304 -0.005565297312401752 0.0014765226976150834
95744066 -0.005582430301171788 0.0015958690947414326
95773828 -0.0055862407257318576 0.0016825710065426723
95803590 -0.005570233220721964 0.0018082703220582625
95833352 -0.005597161803690426 0.0018942895967833148
95863114 -0.005549391699311872 0.0019830399857020888
95892876 -0.005515063088526407 0.002052317021802933
95922638 -0.005464906764466968 0.0021148161334932085
95952400 -0.0054333367328850656 0.00217926381106686
95982162 -0.005403067979530726 0.0022394322281209947
96011924 -0.0061927070019695465 0.0015341249597213777
96041686 -0.005318729883921508 0.0023624177595318696
96071448 -0.0052829054359158694 0.0024079129512211265
96101210 -0.005238601176538644 0.0024714999455828536
96130972 -0.00606461255599861 0.001831547400222392
96160734 -0.005248996467071639 0.002580396538388836
96190496 -0.005246502674035003 0.0026380227375083216
96220258 -0.005279749407195736 0.0027053982089553547
96250020 -0.0052718101223618195 0.0027608580718809232
96279782 -0.005323295977579534 0.002797261447109231
96309544 -0.005297441451122649 0.0028666833787096245
96339306 -0.005309059215924087 0.002928603339044378
96369068 -0.005313259865757044 0.0029802505933066254
96398830 -0.005325280707081456 0.003025733628317627
96428592 -0.005314023030043196 0.0031160611743113334
96458354 -0.005316661139254474 0.0031877441781352593
96488116 -0.00451520170698618 0.00369362771009471
96517878 -0.005327675504396223 0.003342576178516163
96547640 -0.005311887246822779 0.003415652814000375
96577402 -0.005316948682367467 0.003485555405260003
96607164 -0.00597167878008574 0.0034378646382003846
96636926 -0.0044773247175758524 0.004034767901633937
96666688 -0.005309239370273672 0.003710497251223374
96696450 -0.005248696360329873 0.0037031797078163372
96726212 -0.005221667686363623 0.003705289507397622
96755974 -0.006060646888772659 0.0032287065748184806
96785736 -0.005127642471717362 0.003690885619758767
96815498 -0.00596716788822178 0.0032195755665233067
96845260 -0.00504075574319446 0.003680317343037236
96875022 -0.005002571916497891 0.003672088217002575
96904784 -0.004985552355194479 0.003652004329682863
96934546 -0.004872297326476264 0.003679208087261655
96964308 -0.004915093617067539 0.0036361687004249016
96994070 -0.0049301995594341836 0.0036417188691041566
97023832 -0.004192993819320172 0.0039624898074301215
97053594 -0.004962758623083168 0.0036344917468667122
97083356 -0.004988021163825581 0.003630755882189879
97113118 -0.005805955308743889 0.003228745496007583
97142880 -0.005005884112193797 0.003628135025191868
97172642 -0.0042879745602655605 0.003939777426576763
97202404 -0.005046289298145214 0.0036063944462049282
97232166 -0.005028972115351756 0.003617863004181815
97261928 -0.005036442503149094 0.0036512961918749123
97291690 -0.004998432711876472 0.0037203355237469624
97321452 -0.004976456744845811 0.0037588166656700346
97351214 -0.004983783635054728 0.0037959024013170814
97380976 -0.004972790082101435 0.003833914306337655
97410738 -0.004926273639913688 0.003895541188857424
97440500 -0.0049103725263413035 0.003937956629031916
97470262 -0.004155148256661032 0.004256680862518218
97500024 -0.00487907827617553 0.0040243188844137565
97529786 -0.004893739003098421 0.00405052692894115
97559548 -0.004124888797262369 0.004380755600776389
97589310 -0.004862582194000952 0.004154441029067419
97619072 -0.0047812583301333434 0.004231398136940234
97648834 -0.004888426131385625 0.004240154653404123
97678596 -0.004846831697122165 0.004281066213974699
97708358 -0.004102006743819158 0.004574268265007554
97738120 -0.004846974763446609 0.004369550466220613
97767882 -0.004835554825203486 0.0044168867493996015
97797644 -0.0055658014143936535 0.004176865439545443
97827406 -0.00473600354300961 0.004467339883751261
97857168 -0.004628139555471852 0.004507201888537944
97886930 -0.004541589815795138 0.004533102868825727
97916692 -0.005214512002044345 0.0043143742604358284
97946454 -0.004402282289664783 0.004592249046584792
97976216 -0.005036853094293681 0.004382891464073605
98005978 -0.0035781592204614005 0.004826002913938336
98035740 -0.0041928663599153 0.0046591753585472
98065502 -0.00419219018272374 0.0046600422754328
98095264 -0.00425468881343731 0.004681354843376691
98125026 -0.00429044300104076 0.004713335397926943
98154788 -0.0036694311500081317 0.004923094728284867
98184550 -0.004423130221594295 0.004748537665743778
98214312 -0.004499664046897113 0.004765605664235801
98244074 -0.003866147481123951 0.004982711422644514
98273836 -0.004675566692967851 0.004779645673973807
98303598 -0.004717318027332512 0.004798929832046816
98333360 -0.004798348608950331 0.0048054820613279235
98363122 -0.004822730812447101 0.004781025988905908
98392884 -0.004764727216961156 0.004772090929397193
98422646 -0.004794233121279734 0.0047329964828474866
98452408 -0.004783921856022198 0.004714144880219518
98482170 -0.004715999229458595 0.004700928842624374
98511932 -0.004750769081239451 0.004667923309557348
98541694 -0.003985345810293165 0.00486702874262653
98571456 -0.004671528766706635 0.0046386499856167695
98601218 -0.005372705595032212 0.0043813770019686385
98630980 -0.004623426923446835 0.004634114335083655
98660742 -0.0045751067089048756 0.004676024994388837
98690504 -0.0038313473037250557 0.00489196518720758
98720266 -0.005176123883171853 0.004555345690883233
98750028 -0.004431961130097979 0.0047890785219574785
98779790 -0.004378673599441738 0.004842314700132569
98809552 -0.004382978813695347 0.0048612539442951155
98839314 -0.004283778390069038 0.004915553852415453
98869076 -0.004276887770537291 0.004930885703414169
98898838 -0.00489848387497656 0.004806997848087862
98928600 -0.004222776063456365 0.004991553142644094
98958362 -0.0050281604728888655 0.004817707129336295
98988124 -0.004299306677836031 0.005014144946463226
99017886 -0.004258209158845797 0.005077136512157043
99047648 -0.004319333653831842 0.005063430362629798
99077410 -0.004280580753796246 0.0051000758439364935
99107172 -0.0043060620460318375 0.0051179548428966
99136934 -0.00437607631907049 0.005111153738759376
99166696 -0.0044039212861536605 0.0051228640920072495
99196458 -0.004357405854984287 0.0051236898234385325
99226220 -0.004351468749008104 0.005090538265299221
99255982 -0.0044159847651924055 0.005059163244017273
99285744 -0.004365817143116355 0.005054759530930011
99315506 -0.004425426863190895 0.005018537835873564
99345268 -0.004440077920535717 0.004983597579195124
99375030 -0.004381204212462796 0.0049912875662131906
99404792 -0.004255723701255551 0.004944702638703963
99434554 -0.004428697551299016 0.004945070305097827
99464316 -0.0043301857731899845 0.004973761286184482
99494078 -0.004304851274021661 0.005018624419679446
99523840 -0.004183365399731243 0.005088733918369955
99553602 -0.004105214395671115 0.005128055773850803
99583364 -0.00464567846825078 0.005040755235948146
99613126 -0.0032906094479574835 0.0053527477322005725
99642888 -0.003852365322454275 0.005282766057835668
99672650 -0.0037787775681775724 0.005316421167033314
99702412 -0.004281510404629389 0.005248751646057854
99732174 -0.003675717898288822 0.005379337757715358
99761936 -0.0035330472213951645 0.005377152033339912
99791698 -0.0038121504755205967 0.005307293022813899
99821460 -0.003783009719285001 0.0052995712177132046
99851222 -0.003876884905488618 0.005268481365904592
99880984 -0.004452802240950704 0.005125761112199355
99910746 -0.003898749673650017 0.005212969269605719
99940508 -0.004540523459801522 0.005066894140330465
99970270 -0.003989034521203286 0.005148898365674888
100000032 -0.004025337509135566 0.005124059003854081
100029794 -0.00401200983363061 0.005125955176454643
100059556 -0.00399793990629981 0.0051342532392339825
100089318 -0.003985366829379946 0.005147506346100321
100119080 -0.003965575011486913 0.005146798812719981
100148842 -0.003948911824129396 0.0051625634299302114
100178604 -0.003938692188646065 0.005170956563795435
100208366 -0.003926434988620124 0.005182561742922684
100238128 -0.0038255017913236215 0.005188277153122241
100267890 -0.0038097042377104773 0.005190914492431715
100297652 -0.003808063957711483 0.0051958610019941145
100327414 -0.0038117712654428993 0.005204826119936398
100357176 -0.0038084611656575298 0.00520424385545025
100386938 -0.0038170187810608863 0.005203093258772864
100416700 -0.0038180716352840373 0.005207849580012182
100446462 -0.0039043978316176072 0.005202359175183047
100476224 -0.0038942606503198653 0.005213006704162999
100505986 -0.003901773734326301 0.005222345792436312
100535748 -0.003903043551326201 0.005226971429967778
100565510 -0.003928605308445423 0.005237646863198577
100595272 -0.003970746090619154 0.005285528376842075
100625034 -0.004021385615409179 0.005325863526019063
100654796 -0.0040554437911724545 0.005360764841805779
100684558 -0.004121076194202707 0.0054024779789149675
100714320 -0.00417027044516121 0.005444386620348247
100744082 -0.004227716578454039 0.005478793710840073
100773844 -0.004268267391700678 0.0055158462394118086
100803606 -0.004324917528632478 0.005559046463477629
100833368 -0.004387115659146606 0.005611154679533176
100863130 -0.004333827209749184 0.0055827010542610425
100892892 -0.004281891266300237 0.005577530001874256
100922654 -0.004235096455149087 0.0055718567656627
100952416 -0.004180525541164595 0.005556640769138778
100982178 -0.004129598128135978 0.005542569321417919
101011940 -0.0040764281613220234 0.005528360756888314
101041702 -0.00403964866398099 0.0055187761367690895
101071464 -0.003995439506605993 0.005508078353225286
101101226 -0.003939237567317713 0.005500262567489916
101130988 -0.003930669560236101 0.005484974485480006
101160750 -0.003933913604873351 0.005480392947216542
101190512 -0.0039336315887225585 0.0054773793484525326
101220274 -0.0039359838507216525 0.005472482446450103
101250036 -0.003945578653392962 0.005467038145850102
101279798 -0.0039497725587238795 0.005455133965630894
101309560 -0.0039639488366762735 0.005455622190570092
101339322 -0.003957666886499591 0.005445262968523574
101369084 -0.003963749623148702 0.005439602158604498
101398846 -0.0039557874405229025 0.005457142503934584
101428608 -0.0038892614579155143 0.005514749887558825
101458370 -0.0038228631487911362 0.005569172782779079
101488132 -0.0037767888520680967 0.005624810568740866
101517894 -0.0037092229332754707 0.005673676584455725
101547656 -0.003640856285346949 0.005730606492945038
101577418 -0.003582831817835557 0.005784297126175822
101607180 -0.0035159526460589365 0.005830624103585129
101636942 -0.003446704754844758 0.0058828410449314325
101666704 -0.0033750962815670476 0.005926920263250192
101696466 -0.0034810073337205602 0.005882952355652601
101726228 -0.003567620747528297 0.005841596526953289
101755990 -0.003665698132884592 0.0057854776365017825
101785752 -0.003755243216086242 0.005734348784741751
101815514 -0.003843506670576266 0.005676142898044742
101845276 -0.003930463916284171 0.005614694946351669
101875038 -0.0040136539876415266 0.0055560367607706005
101904800 -0.004103087548858969 0.0054785121874830174
101934562 -0.004184963316802823 0.005414959276051988
101964324 -0.004159140136898509 0.005411663307493962
101994086 -0.004074100667592832 0.005457186173688789
102023848 -0.003981682628934587 0.005502615884826844
102053610 -0.003897125279674894 0.005546834685229453
102083372 -0.0038144937027215432 0.005577736151234739
102113134 -0.0037282649094071904 0.00560046460932027
102142896 -0.0036405975714077225 0.005652891838447028
102172658 -0.0035543824165935735 0.005681041973707071
102202420 -0.0034699784997846007 0.0057085562662762355
102232182 -0.0034387861574579686 0.005737796202088431
102261944 -0.0035228944916770918 0.005767012839308393
102291706 -0.0037717043951980903 0.005798245778885323
102321468 -0.003702564646184791 0.0058195704192966135
102351230 -0.0037894023777596017 0.005841480907890212
102380992 -0.003895786715972653 0.005861373055987449
102410754 -0.003986979670791699 0.005890370044483655
102440516 -0.004089801459052244 0.005906877425689526
102470278 -0.004191067100203396 0.005925260988111716
102500040 -0.004301204269350418 0.005932751672275168
102529802 -0.0042376481028796615 0.005955689951166141
102559564 -0.004190678098427683 0.005973757818347001
102589326 -0.004130160554609683 0.0059884640993494
102619088 -0.004086104796235906 0.005999026576906342
102648850 -0.004024719954876308 0.006011778605194762
102678612 -0.003981000961417826 0.006011160763360734
102708374 -0.003930508655913806 0.006010079562861543
102738136 -0.0038668248583925 0.006045091891675554
102767898 -0.0038132653350080965 0.006057520545286632
102797660 -0.003796479086247975 0.006042777393990532
102827422 -0.0037821151758331813 0.006015950759779108
102857184 -0.0037697815723489523 0.005981515393011877
102886946 -0.0037682448334808638 0.005945323756265605
102916708 -0.0037557572872257998 0.005920150169580879
102946470 -0.0037375156249549466 0.005891547491221356
102976232 -0.0037313712504386002 0.005862786908193771
103005994 -0.0037147233935650487 0.0058345509821971855
103035756 -0.003704103945220603 0.005806422495498525
103065518 -0.0037086017409313295 0.005780561508412909
103095280 -0.0037083730631135205 0.005817054608449203
103125042 -0.0037068409728479375 0.0058429370023948
103154804 -0.003710547958751591 0.005874775095901815
103184566 -0.003720275672319377 0.0058845450950839396
103214328 -0.0037241765568358487 0.005918314299948598
103244090 -0.0037157529032623648 0.005948404012241156
103273852 -0.003722654209839197 0.0059727787562702354
103303614 -0.0037320477596722444 0.006004202609651307
103333376 -0.003730283864058868 0.006023894103799772
103363138 -0.0036426851423540436 0.006023342406780855
103392900 -0.0035658030596578305 0.0060128986725172815
103422662 -0.004062778444430906 0.00601837078402855
103452424 -0.003393611209133922 0.0059939660614006345
103482186 -0.003314163370272125 0.005986167661848938
103511948 -0.0032272333000571917 0.00597243491449912
103541710 -0.0031506398097106126 0.005960410635175576
103571472 -0.0030776723219271785 0.005943196038379651
103601234 -0.0029939415679085214 0.00593131083552084
103630996 -0.0030050903250189273 0.005916286817464641
103660758 -0.003050397590471333 0.005916552183528627
103690520 -0.003097589143743791 0.005908033880852742
103720282 -0.003147211484783021 0.005895215931079758
103750044 -0.003195431760666011 0.0058844331091102
103779806 -0.00323970923523038 0.005889656943583271
103809568 -0.0032910324457121015 0.0058765195587298005
103839330 -0.003336174382142388 0.005864605376934608
103869092 -0.0033822930168147776 0.0058516722840704525
103898854 -0.0034330059579985236 0.005850952695101006
103928616 -0.0034729473518886394 0.0058744382660603
103958378 -0.003507822559219375 0.005878915460317192
103988140 -0.0035475595863205395 0.005909899386427323
104017902 -0.003597896644624465 0.005937498450345678
104047664 -0.0036316072784659003 0.0059560686464129545
104077426 -0.003680050698108113 0.0059814842418398646
104107188 -0.0037157388772226375 0.006005366345494871
104136950 -0.0037648021108710413 0.006025417597610516
104166712 -0.0038205777051114327 0.006044906775228533
104196474 -0.0038018041431464437 0.0060877228458194365
104226236 -0.0037874232580727652 0.006135954237234972
104255998 -0.003774059804524864 0.006165994370173642
104285760 -0.003763016589651925 0.006220063866493952
104315522 -0.0037595395949416425 0.0062549118693010835
104345284 -0.003910224881254168 0.006288617377922286
104375046 -0.003727720362819566 0.00634493289506512
104404808 -0.0037092295462084037 0.006388980623927352
104434570 -0.0037018828129555897 0.006429175152553123
104464332 -0.003697465422979946 0.0064124601902517
104494094 -0.003681964098656164 0.006349431456938461
104523856 -0.0036907775587122506 0.006286043080892551
104553618 -0.0036754275921336453 0.006238219584390299
104583380 -0.0036684149358685815 0.006181562372248583
104613142 -0.0036618488156319965 0.006122203088431966
104642904 -0.0036560677846600585 0.006072928875503451
104672666 -0.003648007815267261 0.006011268712260164
104702428 -0.003640527937285555 0.0059634473312989225
104732190 -0.003634534124996372 0.005949241208927771
104761952 -0.003617613910756832 0.00601476259387587
104791714 -0.003594303463791555 0.006085219237229312
104821476 -0.003579059926076055 0.0061575472999426725
104851238 -0.0035568037996803383 0.006226023809763314
104881000 -0.0035402934979656686 0.006280642476123608
104910762 -0.003509590215811185 0.0063764024817802795
104940524 -0.003481522610405641 0.006443697622303655
104970286 -0.0034552459981277805 0.006523129162308455
105000048 -0.003416236582506087 0.006598439582953535
