# HZ S RI R 50
90000000 -2.5742876327542186e-06 0.005043299929357642
90029762 4.125722068357094e-05 0.005065078617617242
90059524 -0.00016803252249461076 0.0050788251907977686
90089286 -3.6451649176623604e-05 0.005114745098952683
90119048 -0.00019543158478517268 0.0051215651390677745
90148810 -5.705078594066641e-05 0.005158058909785933
90178572 -6.940771304033712e-05 0.0051854943883228345
90208334 -3.595560962308838e-05 0.005209762776794531
90238096 -0.00024595702959205113 0.005216372996705448
90267858 -0.00010874431460958615 0.0052555225682854876
90297620 -9.752500753934419e-05 0.005225686915170553
90327382 -2.1675666459750155e-05 0.005185028501614528
90357144 -3.779271313522095e-05 0.005123282866247269
90386906 3.619292836627666e-05 0.00507519084117747
90416668 -0.0001262365120618082 0.005009071984388508
90446430 3.951293821263569e-05 0.004973762333230918
90476192 0.00011104442507167941 0.004922666613474961
90505954 0.00014283087798090774 0.004875798670433723
90535716 0.00011757769178483459 0.004825786977759199
90565478 0.0001930396189568764 0.0047936721018117185
90595240 0.00019506990124085655 0.004794530706088942
90625002 0.00023759280890954466 0.0047927775309522915
90654764 0.0003209034404804253 0.0047900149000951265
90684526 0.0003723638360102741 0.004788125737433221
90714288 0.0003715383648658326 0.004784615384618657
90744050 0.0004195587210108008 0.004775833088895608
90773812 0.0005093056541460008 0.004774492174222906
90803574 0.0005148832263581688 0.004768755597756948
90833336 0.0006036131359755461 0.00476453083827131
90863098 0.0006261550986308203 0.0047329931274191364
90892860 0.0006139805986499845 0.004691196075567314
90922622 0.0006833175442225761 0.004654052582694249
90952384 0.0007094241971701025 0.004616406306570263
90982146 0.0006983480687960519 0.004582390584394335
91011908 0.0007606267228820135 0.004543437572188619
91041670 0.0007500899857949434 0.00450915978316125
91071432 0.0007775153988199403 0.004469899581987511
91101194 0.0006889940198574109 0.004432975458609749
91130956 0.0008459958966927862 0.00443115484781534
91160718 0.000802361259226544 0.004448966099981111
91190480 0.000794651013036482 0.004460546834707809
91220242 0.0006723190500791639 0.004473431965062352
91250004 0.0007839962134731888 0.004491805939112217
91279766 0.0006658247503562165 0.004501425014629996
91309528 0.000806357707100826 0.004520944404848558
91339290 0.0007643935832993773 0.004531127734555067
91369052 0.0007863848933214829 0.004541508764562666
91398814 0.0006427529590304123 0.004536651534245383
91428576 0.0007643416673973105 0.004499003737088262
91458338 0.0008171581214513509 0.004459888671377701
91488100 0.0007923778006195022 0.004415660676994167
91517862 0.0008023914305130332 0.0043821055488974985
91547624 0.0008504053869453825 0.004342007967880407
91577386 0.0008671389732890361 0.004300860433007166
91607148 0.0008455666626165026 0.004259137782278997
91636910 0.0008580503098129609 0.0042165549417826406
91666672 0.0009061188485470323 0.0041821541195076655
91696434 0.0009517558059703794 0.004149746869516725
91726196 0.0010552172211158281 0.004125697151631066
91755958 0.0011284499240622487 0.0040836579844516436
91785720 0.0011719188344395607 0.004060530700811761
91815482 0.0012723861814631172 0.004012488827664103
91845244 0.0013519335206616959 0.003975425036234576
91875006 0.001391673826500493 0.003933897218435887
91904768 0.0013714596092729689 0.0038976434650368486
91934530 0.0015332439827412466 0.0038402816314058296
91964292 0.0015643436131393712 0.0038105403988069092
91994054 0.0016167592698262997 0.003790259793163433
92023816 0.0015232326424453192 0.003786131593401158
92053578 0.0016343167406234124 0.0037576549979602895
92083340 0.0016575345924830936 0.003741474381621341
92113102 0.0017075073276627492 0.003714724004503911
92142864 0.0016956132875206237 0.0036940783136083263
92172626 0.0017487056149615612 0.003660146897964886
92202388 0.001662059033910513 0.003656301157553423
92232150 0.0017538644329726963 0.003607030217453615
92261912 0.00165901349380873 0.003544697157026971
92291674 0.001749619315820031 0.0034546324610536493
92321436 0.0017096613383172801 0.0033910173243544934
92351198 0.0017184786743212816 0.0033111211899532053
92380960 0.0016818534548150284 0.003241037900548587
92410722 0.0016719504763160614 0.003165664827682801
92440484 0.0016795655120412799 0.0030930008322802485
92470246 0.0016701994827265968 0.003017440020330094
92500008 0.0016379845677410001 0.0029480593447920775
92529770 0.0016526129185157011 0.002907454229349511
92559532 0.001691253992627326 0.0028660333480327728
92589294 0.001685815455132919 0.0028409074971762023
92619056 0.0017211284114858657 0.0027787500619309512
92648818 0.0017411907704653043 0.002735775368433031
92678580 0.0017350368103401447 0.0026996759982161516
92708342 0.001770659593860825 0.0026487304284224236
92738104 0.001781415834611942 0.0025957570012478223
92767866 0.001774589091895303 0.0025477560011507444
92797628 0.0018120720777323892 0.0024771919154907276
92827390 0.0018189460766483189 0.0024081439351934485
92857152 0.0018314644797701055 0.002329330433118669
92886914 0.0018070356334450803 0.002270574151593197
92916676 0.001887984688639411 0.00216800281429437
92946438 0.0018858088266202823 0.0020864636340808
92976200 0.0018937713924171073 0.0019959006108553963
93005962 0.0018696238002020385 0.001973798706666928
93035724 0.0019182966045765242 0.0018700627465433315
93065486 0.0018860504083017344 0.0017852720320010503
93095248 0.0019590116537245668 0.0016441419183838293
93125010 0.0019521632174610288 0.001547535490282765
93154772 0.001964147108673386 0.0014195113447033785
93184534 0.0019328538246428757 0.001322424935767546
93214296 0.001937889145924029 0.001182297804496782
93244058 0.001903937664576836 0.0010929718946130263
93273820 0.0019039053068856961 0.0009454041510343372
93303582 0.0018797473242973721 0.0008266201674145479
93333344 0.001857415235287311 0.0006983826655531268
93363106 0.0018081012327472322 0.0006304771525392137
93392868 0.0017477241708700685 0.0005596596021367
93422630 0.0016952900892424877 0.00048684791356938295
93452392 0.0016319104592097406 0.00039160613087718807
93482154 0.0015822985934395254 0.00032548264730004054
93511916 0.0015006176325900985 0.00023746668488363896
93541678 0.0014405312313755998 0.00015682570158413788
93571440 0.001384430276227547 6.061018987993814e-05
93601202 0.0013216958958449218 -1.8130986355336733e-05
93630964 0.0012427767060512343 -0.00011312473969236974
93660726 0.0011640062223984774 -0.00023287177556333418
93690488 0.0010712644922257178 -0.00034504531222008257
93720250 0.0009816213500969753 -0.00045142055346970004
93750012 0.0008793439624757708 -0.0005414631883098169
93779774 0.0007702147281506597 -0.0006325336603148899
93809536 0.0006917437669030282 -0.0007567685792807716
93839298 0.0005568900108655432 -0.0008283207402283917
93869060 0.0004350831054767558 -0.0009017676161208733
93898822 0.00029091915183368 -0.0009860389512798245
93928584 0.0001694692212850126 -0.001061378647318142
93958346 2.0718723131094e-05 -0.0011214624821530542
93988108 -5.643723707904449e-05 -0.0012017745230659177
94017870 -0.00021266695749549115 -0.001248617383224176
94047632 -0.00033299136473233975 -0.0013307337418347791
94077394 -0.0005146886471140056 -0.001347373191680572
94107156 -0.0006456968415711303 -0.0013869290734452296
94136918 -0.0008140833978671476 -0.0014272380186498516
94166680 -0.000928256337195219 -0.0014751996272366304
94196442 -0.0011601339429955925 -0.0015271779074889187
94226204 -0.00132773303550189 -0.0017329300026308855
94255966 -0.0016037420354818599 -0.0017627560632496413
94285728 -0.0018551401076048154 -0.0019550729513176154
94315490 -0.0021079460608806563 -0.0021190410839319524
94345252 -0.0024461254914254003 -0.0023168169948617986
94375014 -0.0027694165127627357 -0.0025173688046186177
94404776 -0.0031531108911614964 -0.002795993696322653
94434538 -0.003508759550868014 -0.0032257944000036024
94464300 -0.0036949697832566217 -0.003165335309338719
94494062 -0.0037610837255955512 -0.002829818564620744
94523824 -0.0037263658749197045 -0.002522952208755076
94553586 -0.0037342469951602074 -0.002313706898979777
94583348 -0.0037161200832412714 -0.002059160375712028
94613110 -0.00368026609373845 -0.0018815589113186893
94642872 -0.0036513112273729173 -0.0016955849801279267
94672634 -0.0036354665934255734 -0.0014760578652214043
94702396 -0.0036025191919472305 -0.0013064357757402534
94732158 -0.003602816523373841 -0.0012269799644115884
94761920 -0.0037087426766792306 -0.0011227022676469774
94791682 -0.0037916796441584185 -0.0011030511962969265
94821444 -0.003871909702248053 -0.0009484330777357096
94851206 -0.003966460549052615 -0.0009172950500740422
94880968 -0.004010381223414623 -0.000712092154403322
94910730 -0.004075919640000107 -0.0006575036861655072
94940492 -0.004141004383690105 -0.0005393623350263494
94970254 -0.0042172767165198815 -0.000525477720015283
95000016 -0.004256641273419462 -0.0003536371664542437
95029778 -0.004366777010137793 -0.0003398065314197902
95059540 -0.0044624987439349055 -0.00023653158454247327
95089302 -0.0045468715900914385 -0.0001559540045868323
95119064 -0.0046277204045463635 -6.29677184595154e-05
95148826 -0.00476134864107723 -6.591627690778365e-05
95178588 -0.004816258122115729 5.9699593051100604e-05
95208350 -0.004906010108118469 0.0001246801991930224
95238112 -0.00497216748386305 0.0002246194927058527
95267874 -0.0050633053165769866 0.00027456913120702057
95297636 -0.005128908128319599 0.0003636186294796049
95327398 -0.005192015415312025 0.0004526564157532208
95357160 -0.005239042638070094 0.0005280092063871487
95386922 -0.005266006197636737 0.0006212145154972408
95416684 -0.005316762622147195 0.000719735187037822
95446446 -0.005359062131635995 0.0008098003943479356
95476208 -0.005378754102690672 0.0008885547652351879
95505970 -0.005432217615794844 0.0009639530280918447
95535732 -0.005474570273779735 0.0010406460315268641
95565494 -0.0054916367727585735 0.0011383708913257295
95595256 -0.005513986768060622 0.0012466604826422442
95625018 -0.005543919624525776 0.0013481051320590979
95654780 -0.005564432098204701 0.001467511331921854
95684542 -0.005558955912527394 0.0015657007773900713
95714304 -0.005583331496998421 0.0016728439180251752
95744066 -0.005597338612270013 0.0017688682080476865
95773828 -0.005598400100824032 0.0018703739425945125
95803590 -0.005608618849576612 0.001982516919998435
95833352 -0.005590550855394315 0.002069922251375485
95863114 -0.005546009033021252 0.00215864673984489
95892876 -0.005515296058267838 0.002233486711086795
95922638 -0.005475039719611685 0.0022770647662996237
95952400 -0.005439906924464781 0.002334745042963099
95982162 -0.005394535476987993 0.0023810993995448775
96011924 -0.006175998139795274 0.0017548153935810704
96041686 -0.005303827080487887 0.0025165682379470825
96071448 -0.004655261346034776 0.002745263276098426
96101210 -0.005214101618251372 0.002624588758390525
96130972 -0.006054292288671041 0.0020043186619058155
96160734 -0.005216146033292834 0.0027346316292120444
96190496 -0.005218209963532345 0.0027883138024318633
96220258 -0.005227852206977632 0.0028444810017626684
96250020 -0.00524213269579957 0.0028751619460311508
96279782 -0.005248898684524332 0.0029540020915139464
96309544 -0.005265309098235723 0.003010630700560468
96339306 -0.005267616862330467 0.0030521961586461835
96369068 -0.005282265630565002 0.0031048397868537166
96398830 -0.005285051107953775 0.0031743218142616303
96428592 -0.005287432778569652 0.0032535747269295335
96458354 -0.00528260991072372 0.0033078105751925537
96488116 -0.004472920647180387 0.0038146027068336383
96517878 -0.0052750668133395556 0.0034742162444749147
96547640 -0.005257906893387229 0.0035398968048487925
96577402 -0.0052727520894208495 0.0036047610364644852
96607164 -0.005256448060726211 0.0036751389250511443
96636926 -0.0044163289386003205 0.004119634327596896
96666688 -0.005248475827555653 0.0038181579613165684
96696450 -0.00520012323426832 0.0038155139589093182
96726212 -0.005162608921190318 0.003803957696604606
96755974 -0.006014143083445067 0.003359220962134292
96785736 -0.00506349306356851 0.0038028438571550715
96815498 -0.0059091458967831054 0.003348521001129574
96845260 -0.004988813727170708 0.0037645878936218486
96875022 -0.004944450711733344 0.0037596788733458304
96904784 -0.004937043626155861 0.003736740262313548
96934546 -0.004821046417669139 0.0037659072761479996
96964308 -0.004871103162117628 0.0037408723956628624
96994070 -0.004875495589077157 0.003736165294411302
97023832 -0.004154973843462324 0.0040400077405589865
97053594 -0.004914614317770086 0.0037287682773988846
97083356 -0.004941535118571457 0.0037112738220319887
97113118 -0.005764277797430911 0.003317689456367528
97142880 -0.004955350059669867 0.003711929115794589
97172642 -0.004233960558867092 0.004005519204071255
97202404 -0.005008012442903846 0.003669839131833496
97232166 -0.004987477442451974 0.0036889873719894496
97261928 -0.004999091127020287 0.003723625415107652
97291690 -0.004942927488192586 0.0037820051203416682
97321452 -0.004924870765747677 0.003822029154653555
97351214 -0.004938695488854949 0.0038581097223909537
97380976 -0.00491983209784107 0.0039054707558803248
97410738 -0.004876659972754032 0.003955311753731111
97440500 -0.004858116531911286 0.003994851378408684
97470262 -0.004104790008205165 0.0043069838826945575
97500024 -0.004830497429407769 0.004077127246859296
97529786 -0.004845164764698218 0.004117963393332896
97559548 -0.004080473318645697 0.0044297997211661935
97589310 -0.004803272632572846 0.004208091987006116
97619072 -0.004724844693541597 0.004282504411376582
97648834 -0.004837021280201538 0.0042891400102883885
97678596 -0.004793695628547979 0.004341226069933262
97708358 -0.004055456529283788 0.004612856442546416
97738120 -0.0047901399264212875 0.004420258306221003
97767882 -0.004791108812043611 0.004459831440514417
97797644 -0.005521464824973751 0.004236899099965649
97827406 -0.004690089058402261 0.00451958074487333
97857168 -0.004571257967777366 0.004561302483239396
97886930 -0.0044939623668375245 0.004569376882610633
97916692 -0.00515867298233159 0.004370084570800599
97946454 -0.004361869835113682 0.004625858992756668
97976216 -0.004990646862685626 0.004436160945240372
98005978 -0.00355000892769039 0.004860781929885454
98035740 -0.004145036885107293 0.004697198139348546
98065502 -0.0041472705106665834 0.004705149425023931
98095264 -0.0042065662789815125 0.004721673817220981
98125026 -0.004245827428662812 0.004754393136213916
98154788 -0.003645722267773571 0.004963795863445481
98184550 -0.004387891269880966 0.004789069395594795
98214312 -0.004456479690246404 0.0048081757952421235
98244074 -0.0038285695899734963 0.005020256779891922
98273836 -0.004647602602449292 0.004826884954151457
98303598 -0.00469376951956346 0.004858431282572231
98333360 -0.004763230952861196 0.004858365996258943
98363122 -0.004791942723827369 0.004820634926751577
98392884 -0.004733992556814983 0.004816488422561079
98422646 -0.004755733144191696 0.004783394963620703
98452408 -0.004746664538496381 0.004756514062428008
98482170 -0.004687300534188284 0.004748909863256353
98511932 -0.0047193240323848895 0.0047081250351741115
98541694 -0.0039495284798585 0.004903546245426422
98571456 -0.004648285746216582 0.004674749707937763
98601218 -0.005342543575582218 0.004433370652165652
98630980 -0.004601899495165604 0.004671301299674554
98660742 -0.0045443901518934186 0.004726971944215259
98690504 -0.0038082184030909815 0.0049475664963717445
98720266 -0.005154843833111229 0.004596937328891335
98750028 -0.004406149768682672 0.004840761635146737
98779790 -0.004355575457087432 0.004879136994543648
98809552 -0.0043499131006288615 0.004903017760636662
98839314 -0.004259443837299052 0.004958402368191613
98869076 -0.0042530018765603896 0.004977739524127436
98898838 -0.00486864545761785 0.0048596704601057495
98928600 -0.0041948327093856656 0.0050331286815393315
98958362 -0.004896101048255527 0.004890642529711923
98988124 -0.004275713416556213 0.005055146551394667
99017886 -0.0042373013459101275 0.005087683318214754
99047648 -0.00429233624765584 0.005088807832194614
99077410 -0.004254372676309545 0.005113622342304198
99107172 -0.004278623348990419 0.005132782433951903
99136934 -0.004345273206253387 0.005140984505054066
99166696 -0.004362487757264718 0.005152122922774709
99196458 -0.004310543000924004 0.005146484480167182
99226220 -0.004313187290896082 0.005117193137972947
99255982 -0.004380463481821033 0.005098724674446797
99285744 -0.004328445871475051 0.005076095645982243
99315506 -0.00438914201032055 0.005039320452197297
99345268 -0.00428969135160401 0.005046753789418492
99375030 -0.00417522892483341 0.004997002772504341
99404792 -0.004398487916099365 0.004978723963493266
99434554 -0.004404210233244997 0.00496292986015796
99464316 -0.0043023514578830226 0.004995702509904047
99494078 -0.004281994494447978 0.005034855893911633
99523840 -0.0041509851731162195 0.005112572632223584
99553602 -0.004075426372854136 0.005150673086192805
99583364 -0.0046149638654461875 0.0050622221614429214
99613126 -0.0032741350896442548 0.00536583815753494
99642888 -0.003835594874029047 0.005305549846879183
99672650 -0.0037492442827526005 0.005339815786969973
99702412 -0.004268977014268788 0.005264463274475973
99732174 -0.003634219540647563 0.005399608087703936
99761936 -0.0035199593682263917 0.005406970474331843
99791698 -0.0037807918826175757 0.005342002184930891
99821460 -0.003761866968054803 0.005322350799024167
99851222 -0.0038613449786643697 0.005287069277145769
99880984 -0.004436905462398849 0.005154485306819539
99910746 -0.0036458997123819956 0.005189137145049878
99940508 -0.004524810804806473 0.005084540081936511
99970270 -0.003955601292432471 0.00517528096612673
100000032 -0.004000245955339748 0.005154663386540772
100029794 -0.003982658884345664 0.005153985651176266
100059556 -0.0039701985774103525 0.00516521944353822
100089318 -0.003949324468943268 0.0051705115429811245
100119080 -0.003936205830433368 0.0051774099707161845
100148842 -0.0039251904738311335 0.0051835747607580415
100178604 -0.0039047915917938044 0.0051967951861305985
100208366 -0.0039016541524054486 0.005205388859173278
100238128 -0.003879980662492788 0.005218616283329648
100267890 -0.00386838774241948 0.005222024808913491
100297652 -0.0038506247119659207 0.005222878243391083
100327414 -0.0038628002275227394 0.005235249334904798
100357176 -0.0038643748291474355 0.005232977368446011
100386938 -0.0038695160109825464 0.005243253586877031
100416700 -0.003870634426477072 0.00524034213295681
100446462 -0.0038766966805276765 0.005244112351258233
100476224 -0.0038872875032749093 0.005242341569823562
100505986 -0.0038928249744851727 0.005250506660269459
100535748 -0.003885529215007022 0.005257882571149333
100565510 -0.003894346162465739 0.005272701909710446
100595272 -0.003952282731248114 0.005304164066465639
100625034 -0.003989738308898715 0.0053577305036577915
100654796 -0.0040418123902755225 0.005384991362898724
100684558 -0.0040909284914889795 0.005430291318684961
100714320 -0.004144516854347502 0.005463219567817707
100744082 -0.004199939451175044 0.00550953976603671
100773844 -0.0042639266335302226 0.005555090713421681
100803606 -0.004309897263549588 0.005596319612411193
100833368 -0.004365870432056791 0.005628292880913233
100863130 -0.004318639229218369 0.005627515815529195
100892892 -0.004266651313994302 0.005614522677572977
100922654 -0.004214462141966531 0.005597055707617206
100952416 -0.004158711493673921 0.005586389875865894
100982178 -0.0041176074831595615 0.005565636265258459
101011940 -0.004066079696645218 0.005559356713243758
101041702 -0.004021591786897479 0.005542199011534937
101071464 -0.003970067866849475 0.005528726736897274
101101226 -0.003921816425859589 0.005530099841787891
101130988 -0.003915677577038676 0.005512815840000044
101160750 -0.003918857019308751 0.005501932817874724
101190512 -0.003920264630487036 0.005499003343046667
101220274 -0.0039218206874018875 0.005487975964901781
101250036 -0.003945234540707881 0.005482197911021152
101279798 -0.0039380665449762235 0.005477165541074841
101309560 -0.0039459943996625 0.005467442607880442
101339322 -0.00394690582684242 0.005465159028928044
101369084 -0.003951372553667985 0.0054536927242472095
101398846 -0.003938991709626816 0.0054657255537656005
101428608 -0.0038867839921661058 0.005531041759299173
101458370 -0.0038232608961930093 0.005590793164817656
101488132 -0.003766416932061948 0.005642279041189944
101517894 -0.0036940525946979347 0.005694362570677349
101547656 -0.003629455801574116 0.005748548131670058
101577418 -0.003579175324421822 0.005808241213175483
101607180 -0.003501235305441477 0.005849626770342478
101636942 -0.0034322862838019083 0.005905489957169021
101666704 -0.0033706481976427216 0.005954687715338764
101696466 -0.0034620099611536613 0.005896834304474335
101726228 -0.0035604621938106107 0.005860439664772137
101755990 -0.003645286048440563 0.005809324270951487
101785752 -0.003745258008871904 0.005751322127030081
101815514 -0.0038353720980975805 0.00568298441349202
101845276 -0.003923799594546985 0.005635430759946346
101875038 -0.00401180395437309 0.005562618987267411
101904800 -0.004088132707553755 0.005502301081370314
101934562 -0.0041803005957944785 0.005423712686483593
101964324 -0.0041516215304406995 0.0054291251434588185
101994086 -0.004067231093658603 0.005470867981591455
102023848 -0.003975689128910514 0.005506161625833583
102053610 -0.0038979902352235542 0.005547934280298339
102083372 -0.0038049467337610207 0.005586324238746926
102113134 -0.003722252568890574 0.0056331222837123
102142896 -0.003628939757878063 0.005651385121053315
102172658 -0.003547645847004586 0.005681148908049756
102202420 -0.0034603714852158084 0.005710043605971179
102232182 -0.003425305923197609 0.005746953393787012
102261944 -0.0035245422704052215 0.005778580716145231
102291706 -0.0036075384926036206 0.005804108858999529
102321468 -0.0037741387231491905 0.0058278706647257195
102351230 -0.003798078138151733 0.0058460960861446655
102380992 -0.003887205936651505 0.005880347984575828
102410754 -0.003979472678517086 0.005899954844305097
102440516 -0.004084356066307779 0.005914004260054396
102470278 -0.00419316100773826 0.005932386615542345
102500040 -0.004292098035928614 0.005945747053667467
102529802 -0.00424191374767853 0.005965651469091726
102559564 -0.004180782861891111 0.005979165165820426
102589326 -0.004126869955106817 0.005992983406507182
102619088 -0.00408118051752188 0.006003187455442777
102648850 -0.004019329699283116 0.006018938673416562
102678612 -0.003973507360623773 0.0060327706052532674
102708374 -0.003914584632176145 0.006041562429713163
102738136 -0.003860472707781233 0.006058045248431436
102767898 -0.0038095384430128286 0.006063854702999841
102797660 -0.0037816569358268192 0.006040260373827816
102827422 -0.0037690346344555438 0.0060204250669532965
102857184 -0.0037753945995318565 0.0059874387385323545
102886946 -0.0037549884878298654 0.005956432044516755
102916708 -0.003746621587209051 0.005925747514236604
102946470 -0.003734948624989839 0.005895385046661352
102976232 -0.003719661571374152 0.005869281161681392
103005994 -0.0037173129552410026 0.005835006269506687
103035756 -0.0037024766685513763 0.005808141535794198
103065518 -0.0036982203267588733 0.005797367008489318
103095280 -0.00370178921109794 0.005825397263519979
103125042 -0.0037065408274660886 0.005848719768227148
103154804 -0.0037060960063263057 0.00587403236836705
103184566 -0.0037136440289869217 0.005897163165269003
103214328 -0.003715230982097083 0.005924535861726251
103244090 -0.0037144512416154582 0.005950177321818981
103273852 -0.0037203989040080145 0.005982554885184482
103303614 -0.003719108511821482 0.005999009691291538
103333376 -0.0037270220652149827 0.006023941151603911
103363138 -0.0036436201156270246 0.006025422204697426
103392900 -0.0035517904046586534 0.006015539822591961
103422662 -0.003467685747178998 0.006004636428019729
103452424 -0.0033914990710172915 0.005994379143189512
103482186 -0.003308642040071922 0.00598944265853012
103511948 -0.0032229852271426288 0.005979481281498515
103541710 -0.0031472281772634207 0.005958295234040096
103571472 -0.003071534150722107 0.005949154389940698
103601234 -0.0029854440331261722 0.0059290989324954375
103630996 -0.002995352881235033 0.005923959172499089
103660758 -0.003042736513795308 0.005908653095085413
103690520 -0.003084371440783032 0.005909541377500399
103720282 -0.0031402673481505587 0.005904117222729533
103750044 -0.0031909051559033895 0.005893586478801613
103779806 -0.003237609523514672 0.005892130100858063
103809568 -0.00329102461143591 0.005878198301908383
103839330 -0.003336270432359394 0.005867918216588591
103869092 -0.0033823859609537496 0.00585497254240231
103898854 -0.003424095445426608 0.005847520781176299
103928616 -0.0034692647683554362 0.0058802581315177275
103958378 -0.0035087361611305505 0.005904917759730245
103988140 -0.0035583749728578585 0.005921544867883384
104017902 -0.003586744072021135 0.005941244447743304
104047664 -0.0036328841610854695 0.005970276982375635
104077426 -0.0036743063133389555 0.005990890101923553
104107188 -0.0037191611543226197 0.006006080831667877
104136950 -0.00376364412219429 0.006030919759172414
104166712 -0.0038014640421154826 0.0060546711785106205
104196474 -0.0037919115780137903 0.006091755645272185
104226236 -0.003789279490354437 0.006131110629119935
104255998 -0.003768064669926806 0.006175805627087556
104285760 -0.0037717479458841893 0.0062240097035968335
104315522 -0.003746828549037866 0.006256639311019595
104345284 -0.0037330471689090376 0.006305864603276769
104375046 -0.0037208114362793777 0.0063507743510622825
104404808 -0.0037084052223614276 0.006388370583418202
104434570 -0.003693362231524073 0.0064346795233498465
104464332 -0.0036857210206505103 0.006413041470287289
104494094 -0.0036834940979604595 0.0063488633834370735
104523856 -0.0036801119435412727 0.0062972518634070215
104553618 -0.003672914500595698 0.006243953478499494
104583380 -0.0036623217634741286 0.006190059148945614
104613142 -0.0036590963554212685 0.006130141047783062
104642904 -0.003651735003963501 0.006073023276923757
104672666 -0.003636958377338314 0.006020996657528086
104702428 -0.003639198225137472 0.005965240061523714
104732190 -0.0036259130613684573 0.005956252035084499
104761952 -0.003602074670157005 0.006020575542444635
104791714 -0.003601058201814292 0.006091222397470615
104821476 -0.003572656186136833 0.006154079436566427
104851238 -0.0035469690356155267 0.006228790138200286
104881000 -0.0035327217888023663 0.0063064382444722004
104910762 -0.0035054210693322304 0.006372221676160257
104940524 -0.003480352203179301 0.006451625819437381
104970286 -0.003460285075732888 0.006530094940718787
105000048 -0.0034276056174783673 0.0066034251141046125
