# HZ S RI R 50
90000000 3.572250514844659e-05 0.005012588844863912
90029762 7.301129765237007e-05 0.005040143670484721
90059524 -0.00013396353424504872 0.005047423524518736
90089286 4.976336087172798e-06 0.00508316699714362
90119048 -0.00015488091243153192 0.005090590629304581
90148810 -2.1376449021900374e-05 0.005125266898293179
90178572 -2.9321849352241472e-05 0.005147626963442816
90208334 1.117300972480641e-05 0.005160250569185571
90238096 -0.00020801181018302207 0.005178571063972653
90267858 -6.586317706781756e-05 0.005216845825519593
90297620 -4.904596449553081e-05 0.005189651482917494
90327382 2.3572199366289703e-05 0.005143300827752376
90357144 1.2242191430999085e-06 0.005088503409289871
90386906 8.135777678849647e-05 0.0050263430346513295
90416668 -7.983207957023299e-05 0.004976083867205106
90446430 8.12548219153644e-05 0.004936300120789093
90476192 0.0001528506906528993 0.004890888470489497
90505954 0.00017635908543708857 0.004838049986438184
90535716 0.00015772974922485084 0.00478654810285984
90565478 0.00023600937263361688 0.0047578998327354755
90595240 0.00023201603611416896 0.004754177514921841
90625002 0.0002817625257638391 0.004746037872659712
90654764 0.0003682114119273804 0.004746856446496415
90684526 0.0004113202951696994 0.004743655768744638
90714288 0.0004140447856734413 0.004739307406194156
90744050 0.0004642433500173602 0.004730299611300045
90773812 0.0005472470801325095 0.0047247452261322195
90803574 0.0005075342813472457 0.004724237413530018
90833336 0.0006452364065891025 0.004713644898450852
90863098 0.0006686654821225636 0.004670514473380309
90892860 0.0006094222306792415 0.004646505090142328
90922622 0.0007276273824348211 0.004602874022669449
90952384 0.0007537964320414699 0.004564290309976626
90982146 0.0007392315070723118 0.004523658602905601
91011908 0.0007581602145796656 0.004494170644515776
91041670 0.0007920513009549396 0.004448373625958464
91071432 0.0007747855587483833 0.004409893363371702
91101194 0.0007765322813795991 0.004366158221520154
91130956 0.0008835018823964508 0.004372986858512969
91160718 0.0008441051587024541 0.0043825367390034915
91190480 0.0008382922488549077 0.0043959683812515955
91220242 0.000721440159956896 0.0044137663031976115
91250004 0.0008259615483270018 0.004421033979150564
91279766 0.0007158200113278997 0.004435951058341323
91309528 0.0008560487672484666 0.004448713633364191
91339290 0.000810363651102889 0.004460484344770676
91369052 0.0008368408834683489 0.00446947902176227
91398814 0.0006895770394547776 0.004460356817299955
91428576 0.0004911779943122412 0.0044473463970628995
91458338 0.0008641740007337321 0.004376099378727589
91488100 0.0008383524792097167 0.004345356938928416
91517862 0.0008563428755887696 0.00430007806244106
91547624 0.0008985101252242089 0.004261344782255323
91577386 0.0009149439089304255 0.004223842631225183
91607148 0.0008957979435646981 0.0041757398160659105
91636910 0.0009096198728097535 0.004138801088223421
91666672 0.0009538749287571062 0.004092421271194905
91696434 0.0009988724313027728 0.0040613580233166925
91726196 0.0010999374301838242 0.004027605245225092
91755958 0.001176186401802236 0.003991376510888035
91785720 0.0012243159596456172 0.003953421671663099
91815482 0.0011029333846216043 0.003946723202252467
91845244 0.0013928428967360056 0.0038711557675667734
91875006 0.0014363394183383904 0.00382442916059001
91904768 0.0014093366352286362 0.0037846746184524178
91934530 0.0015675685427565499 0.00373106607782435
91964292 0.0016067203602994494 0.0037032787989767883
91994054 0.0016564502581631767 0.0036685980675465442
92023816 0.0015594467389874942 0.003673800413074928
92053578 0.0016670167644618045 0.0036338442897440064
92083340 0.0016896228014272048 0.0036147832631651853
92113102 0.0017351832452359634 0.0035832287889945866
92142864 0.0017329722896822094 0.0035630098784514798
92172626 0.0015719405900189438 0.0035943174285001465
92202388 0.0016945927224238928 0.003513258966459265
92232150 0.0017817385430035748 0.003465327137471972
92261912 0.0016894404207211619 0.003403768443719326
92291674 0.0017803397406508912 0.0033156288322291707
92321436 0.0017532947256288615 0.0032178665914450746
92351198 0.00159439547180637 0.0032164767488330136
92380960 0.001710186557922068 0.003092629698813736
92410722 0.0016961533878448276 0.0030163214724751417
92440484 0.0017078864527429456 0.002940053655909507
92470246 0.0016840937589153906 0.002864148700451772
92500008 0.0016510231533302933 0.002792333928461935
92529770 0.0016728753545183239 0.002755419919207873
92559532 0.0017067404524200825 0.0027066939045653966
92589294 0.001700428470637067 0.0026729844322171937
92619056 0.0017370751161090148 0.002616583254197079
92648818 0.0017531082065065679 0.0025688700860337596
92678580 0.0017386382598814163 0.002524171364864248
92708342 0.0017707334058463112 0.0024603055854777013
92738104 0.0017786166154414417 0.0024089340111385607
92767866 0.0015774033957419156 0.0024469346615874567
92797628 0.0018249424334735957 0.0022549063709079676
92827390 0.0018179030210938466 0.002208567735215516
92857152 0.0018259899990133435 0.002121424123580736
92886914 0.001794925933643039 0.0020626477344282673
92916676 0.0018610597774570054 0.001946999767556662
92946438 0.0017273682998933052 0.0019499202628397822
92976200 0.0018782075458632574 0.001756477746351364
93005962 0.0018320046356098485 0.0017037733236225483
93035724 0.0018716578741338635 0.0015851495625953413
93065486 0.0018413986570656085 0.0014979374375645679
93095248 0.0018681608534175417 0.001361400674221804
93125010 0.001858548316737715 0.0012463012607716202
93154772 0.0018542920458084553 0.0011268309162975312
93184534 0.0017629209783323423 0.00110529536406533
93214296 0.0018134518541229612 0.0008839453191575747
93244058 0.0017724060578761561 0.0007874026976637994
93273820 0.0017452784011126867 0.0006466113232583492
93303582 0.0017124091348796257 0.0005260158834614494
93333344 0.0016558606912543408 0.00039710623345293476
93363106 0.001615935742430296 0.0003502098169123229
93392868 0.0015411201720530853 0.00025378013822889334
93422630 0.001481123575383085 0.00016028621849601473
93452392 0.0014129218242890373 9.554598025035568e-05
93482154 0.0013303485580435498 7.971592429022816e-06
93511916 0.0012562690729095796 -7.922855246872796e-05
93541678 0.0011841096392386707 -0.0001539294326125612
93571440 0.0011149304851617288 -0.0002449584230235171
93601202 0.0010792584443907454 -0.00031965351161498815
93630964 0.0009245810393671912 -0.000418598549480112
93660726 0.0008300327327837308 -0.0005306592560045398
93690488 0.000711744936508624 -0.0006083577386736224
93720250 0.0006278497686086305 -0.0007246334334008652
93750012 0.0005194569060909173 -0.0008162301038099694
93779774 0.0003868318630361179 -0.0008924899462913401
93809536 0.000298895780701983 -0.0009807552524106846
93839298 0.0002512081518618892 -0.0011063784284731984
93869060 -3.9209530664473366e-05 -0.0011031428719441877
93898822 -0.00016682211977643162 -0.0011812282657560633
93928584 -0.00025661291606399243 -0.0012940882415838927
93958346 -0.00045212788216527315 -0.0012625075433809277
93988108 -0.000560597475602474 -0.0013299224943350814
94017870 -0.0007236088460770839 -0.0013691600326569543
94047632 -0.0008158757400925857 -0.0014490438872437371
94077394 -0.0010167946879872769 -0.0013895070701269818
94107156 -0.0011512637821831854 -0.001543658535003415
94136918 -0.0013312077862795881 -0.001423170582403055
94166680 -0.0014478046214208196 -0.001481256399929724
94196442 -0.0016649693515271755 -0.001557365032206067
94226204 -0.0018734376602049024 -0.0017340367469338182
94255966 -0.00216685831491321 -0.0017856377070937927
94285728 -0.0024355598964747034 -0.001937922816373529
94315490 -0.00276337298780963 -0.0020773032221252687
94345252 -0.003107741611854845 -0.0022315014771271194
94375014 -0.003498419976985559 -0.0024816485924540757
94404776 -0.003966092582191438 -0.0026870916520492574
94434538 -0.004402834793096523 -0.0030430197319110753
94464300 -0.004532335953104049 -0.003115328896469021
94494062 -0.004479518547898236 -0.0025272546498663656
94523824 -0.004431181938200249 -0.0022438257144847076
94553586 -0.004329276566011275 -0.0020403908747876013
94583348 -0.004271988151282811 -0.001768238100291965
94613110 -0.004195651041473291 -0.0015755185874824363
94642872 -0.004153424126435411 -0.0013547105970652053
94672634 -0.004068188030007251 -0.0011550743472926435
94702396 -0.003971431915678257 -0.0010167329940707873
94732158 -0.003950790495625026 -0.0008878495760584312
94761920 -0.004046792456359504 -0.0008096787143374345
94791682 -0.004111755101296118 -0.0007876830814251694
94821444 -0.0041677322579831665 -0.0005988113003372243
94851206 -0.004255905884313544 -0.000576078546182837
94880968 -0.004284574271496631 -0.0003815186010322289
94910730 -0.0043265400485649735 -0.0002985810849552431
94940492 -0.004365485084081686 -0.00019351375403869905
94970254 -0.004426877138689461 -0.00015655842762169297
95000016 -0.004444966491795319 -1.2969383160918415e-05
95029778 -0.004544523064800135 1.2206560870750322e-05
95059540 -0.004610338691352382 0.0001338732147763722
95089302 -0.004679241513307403 0.00020988101519071913
95119064 -0.0047458830677993965 0.000298620110244152
95148826 -0.004849663052026999 0.0003230052975829562
95178588 -0.004908215948879672 0.00044654960935745466
95208350 -0.004987960394749531 0.0004957953825593061
95238112 -0.005055529646554117 0.0005866571723619484
95267874 -0.005121892496083151 0.0006416825302507482
95297636 -0.005172133938790822 0.0007197043007900508
95327398 -0.005196132552101065 0.0008168736684847109
95357160 -0.005250152478083902 0.0008923322057390138
95386922 -0.0052792234226857705 0.00099296214600817
95416684 -0.005324605618055485 0.0010647433530040816
95446446 -0.005357523861671067 0.0011474487744642654
95476208 -0.005385243788253155 0.0012350661584389334
95505970 -0.005420200447572628 0.0012915467394641238
95535732 -0.00544594871578793 0.0013519538004579175
95565494 -0.005463287134043948 0.00147449348774385
95595256 -0.0054804164792543264 0.0015627649711962744
95625018 -0.005506988991956594 0.001614697300689692
95654780 -0.005499548261695208 0.001768138389626072
95684542 -0.005508203529603342 0.0018506964325291002
95714304 -0.005507756663532361 0.0019507240398826278
95744066 -0.005537892239074853 0.002000577361700797
95773828 -0.0055246443455977965 0.002125768068126888
95803590 -0.00551787503687593 0.002230268149850334
95833352 -0.005522600741282052 0.002318952616610588
95863114 -0.005458691876985896 0.0024004542799439055
95892876 -0.005419121148234499 0.002438688100510413
95922638 -0.005405495874019042 0.0024820119358132395
95952400 -0.005344609933553746 0.002541495934639779
95982162 -0.00528750207398127 0.002606753933612531
96011924 -0.0060908560733436475 0.001966363722898879
96041686 -0.005197798196195437 0.00268086994665923
96071448 -0.005164186025276305 0.002731599331674357
96101210 -0.005109318441433635 0.002776243099964162
96130972 -0.005950191320728818 0.0022128687104218687
96160734 -0.005109525415457712 0.002884087445823015
96190496 -0.005110170346836024 0.0029322478440358167
96220258 -0.005118979694868396 0.002979326891149596
96250020 -0.00513128238178121 0.003048127733678304
96279782 -0.005144673080106596 0.0030791596774336705
96309544 -0.005149234186287071 0.003110326039718164
96339306 -0.005156620846078139 0.003186073356145338
96369068 -0.005181865640532038 0.00322383131060381
96398830 -0.005179454176797005 0.00326750031639866
96428592 -0.005173794796024126 0.0033487928188966026
96458354 -0.00517138786610797 0.00342625887032628
96488116 -0.004371800806543152 0.0038821285622565966
96517878 -0.005156988562446227 0.003575842896057136
96547640 -0.005150772213534863 0.0036307966144895386
96577402 -0.005154861623509214 0.0036948826791117725
96607164 -0.0051422441582149436 0.0037626699341154544
96636926 -0.004331924824937099 0.004193868588908076
96666688 -0.005148839609865285 0.0039122773251218405
96696450 -0.005080994252625293 0.0039016997462134133
96726212 -0.00506278397241012 0.0038819257307095654
96755974 -0.005897844780148662 0.003444665745599842
96785736 -0.004983997851759112 0.0038634606735835214
96815498 -0.005807296097262541 0.003437985616458491
96845260 -0.0049085989771156845 0.0038399489220569826
96875022 -0.004864436294208187 0.003825504859838139
96904784 -0.0048371675823828345 0.003805225199463902
96934546 -0.004744917781719941 0.003818894979958129
96964308 -0.004789485105740932 0.0037915208713483937
96994070 -0.004798528995782092 0.0037859410225856947
97023832 -0.004082697629830328 0.004098839135343001
97053594 -0.0048382129096544435 0.003781680128490269
97083356 -0.004876835998355536 0.0037715207581264323
97113118 -0.005677207995081562 0.003395707245538693
97142880 -0.0048802561783200795 0.0037597710453434008
97172642 -0.004177027718225041 0.004066123895444564
97202404 -0.0049316926360914795 0.0037263386761390957
97232166 -0.0049157944921097586 0.0037347115950020597
97261928 -0.004904372138273372 0.003761302651438942
97291690 -0.0048618811664463656 0.003802346796138963
97321452 -0.004848123879460943 0.0038411852758285714
97351214 -0.004856981737310901 0.003875334173582315
97380976 -0.004830412537932159 0.003910176386596411
97410738 -0.00480044136151468 0.003974430085084499
97440500 -0.004788033567549608 0.003996791892240502
97470262 -0.004044542380229476 0.004304055893468467
97500024 -0.00475630067295413 0.00406700153579176
97529786 -0.004775658171203469 0.0041074379280681035
97559548 -0.004019499764600416 0.004417297918830677
97589310 -0.004744158264705322 0.004197832351422758
97619072 -0.004655733674982071 0.004268413052254422
97648834 -0.004771773763317174 0.004275238575623856
97678596 -0.00473974112905081 0.004324558998075974
97708358 -0.003995148449788611 0.004607965467126815
97738120 -0.004721274956467923 0.004414604915723053
97767882 -0.00472613880670901 0.004456416817521949
97797644 -0.005449888352849164 0.004233535694144269
97827406 -0.004636066305618755 0.004505791368763954
97857168 -0.004525166335951618 0.004537039626079891
97886930 -0.004457471735162777 0.004565214538798855
97916692 -0.00510901627258346 0.004362230636191475
97946454 -0.004310305379864189 0.00463163027898776
97976216 -0.004931423216209007 0.004427537025202206
98005978 -0.0035039765425935966 0.0048478315984677375
98035740 -0.004095156044553158 0.004689545359278212
98065502 -0.004107349430355413 0.004692013221703004
98095264 -0.004169031326387166 0.004729717346574391
98125026 -0.004205343282807656 0.004762744759804773
98154788 -0.0036025316180080236 0.0049649590470127935
98184550 -0.004344634442282233 0.0047907907128367
98214312 -0.004425492616681002 0.004808249149016181
98244074 -0.003791426123770474 0.005007837937006977
98273836 -0.004614519162684192 0.004825387065426005
98303598 -0.004652183303201357 0.004853165190758148
98333360 -0.004731567902714185 0.004864329767894801
98363122 -0.004751523680525291 0.004832454211191104
98392884 -0.004702416075210114 0.004839169406228096
98422646 -0.004716457090843161 0.004770578169763493
98452408 -0.004725168207590208 0.004764292449128383
98482170 -0.004665597780892557 0.004760551733016271
98511932 -0.004682291421717383 0.004730172979240824
98541694 -0.003932482153237056 0.004916384688577394
98571456 -0.0046164070250139825 0.004677807204195989
98601218 -0.00530359250194209 0.004446322775525595
98630980 -0.004560402884312569 0.004695725770103711
98660742 -0.0045245318896278575 0.00474392184805638
98690504 -0.003786685391678373 0.00496337180681571
98720266 -0.005106502870468161 0.004628798221415582
98750028 -0.00437752055975081 0.004841105662435324
98779790 -0.0043259912159286625 0.004888800971089513
98809552 -0.0043207172262906355 0.004917920343020424
98839314 -0.004227100693839851 0.00497069770450895
98869076 -0.004228372756696976 0.004999041978968452
98898838 -0.0048265876363546905 0.004884077126103359
98928600 -0.0041621293512443085 0.005066097613561129
98958362 -0.004867906977539049 0.0049174188045035296
98988124 -0.004236739108781166 0.005069359554894146
99017886 -0.004224109733028949 0.005094875309162013
99047648 -0.0042911546538739265 0.005092104562647374
99077410 -0.004255394562271301 0.00512550403018237
99107172 -0.004277404182527157 0.005148449209091146
99136934 -0.004340150676042524 0.005149026541998615
99166696 -0.004354706180237066 0.005163127608944606
99196458 -0.004317633303953855 0.0051636860895472965
99226220 -0.00431654693334121 0.0051384734759632395
99255982 -0.0043867763661412755 0.005104209621537216
99285744 -0.004325863898557072 0.005096165096281534
99315506 -0.0043825646999146334 0.00505949555056487
99345268 -0.004394014606851449 0.005034781587421242
99375030 -0.0043427441004844965 0.005026417889555596
99404792 -0.004403165300962409 0.005001222391598096
99434554 -0.0044080461168992105 0.004974875203664766
99464316 -0.004303255399124499 0.005010829809698531
99494078 -0.004276171020752576 0.00506592527216302
99523840 -0.004151030120819202 0.00511562055558496
99553602 -0.004068929697308865 0.005168650283927708
99583364 -0.004612373078284901 0.005089748296430242
99613126 -0.0032734464322660586 0.005380655650764942
99642888 -0.0038332921078873083 0.005309413626202975
99672650 -0.0037478666752316283 0.005352349857639881
99702412 -0.004267546456514859 0.005289768071906532
99732174 -0.003633648914687797 0.005414030635037655
99761936 -0.003520673919795233 0.0054161146042619995
99791698 -0.0037738372703473707 0.0053517990419065875
99821460 -0.0037608940796604964 0.005333961091855756
99851222 -0.003852966656104626 0.005299403891239644
99880984 -0.004433968762283406 0.005169792164611941
99910746 -0.0038808334419369876 0.005257648186799981
99940508 -0.004515035305282857 0.0051042524268003
99970270 -0.0039554650732562145 0.00518605594151996
100000032 -0.003995179698427041 0.005171930462305706
100029794 -0.003973962295591138 0.0051683801450158155
100059556 -0.003960467872919874 0.005184458220695047
100089318 -0.003953348295585173 0.005184466722507054
100119080 -0.0039306095387481674 0.005197872676124603
100148842 -0.003919642546992483 0.005207039781013786
100178604 -0.00391303006181306 0.005207766333404341
100208366 -0.0038854191466363187 0.005223008732429246
100238128 -0.003880090171479538 0.005226306543282884
100267890 -0.00386308700540541 0.0052329321267032824
100297652 -0.0038579335069689447 0.005245253909094753
100327414 -0.003863424885437367 0.005252196740051088
100357176 -0.0038738864633564686 0.00524884789727004
100386938 -0.003862742424820019 0.005259193638259332
100416700 -0.0038761405313788677 0.005254457662364607
100446462 -0.0038733290213322008 0.005259364322962257
100476224 -0.003873447663959934 0.00526770847892719
100505986 -0.0038836138315283594 0.005275207025119898
100535748 -0.003880426109500211 0.005275037377322071
100565510 -0.00389990020946106 0.00529088713631689
100595272 -0.003947948957644485 0.005330709541646554
100625034 -0.00399405757116328 0.005371705887919782
100654796 -0.004046276104419558 0.005411772101181805
100684558 -0.004092610445255264 0.005455294343148957
100714320 -0.004143642945203457 0.00549245178584364
100744082 -0.004197070529870795 0.005526768168379464
100773844 -0.004252204251679581 0.005568767255250722
100803606 -0.004300501126499589 0.005608727048340213
100833368 -0.004366919975753919 0.005654627070699203
100863130 -0.004310929970939369 0.005637525873071509
100892892 -0.004262318474504187 0.005628168323339897
100922654 -0.004213162528802471 0.005622447450625618
100952416 -0.004164651329625331 0.005603114754401722
100982178 -0.0041098869119568044 0.005591292907321896
101011940 -0.004054498296640874 0.005580391191544518
101041702 -0.004011189301329435 0.005562927143579982
101071464 -0.0039679990140726 0.005555512821722529
101101226 -0.003921764805191762 0.0055387401756451645
101130988 -0.003901540627548821 0.005526055201025282
101160750 -0.003909300067623877 0.005521408402698522
101190512 -0.0039163926901384 0.005514732235390747
101220274 -0.003931290346903214 0.0055102659797132865
101250036 -0.003919548380199368 0.005503396967387436
101279798 -0.003933606478437927 0.005497460363132657
101309560 -0.003940867477478463 0.005494681227498734
101339322 -0.003939525630364461 0.005483207400616342
101369084 -0.003949018080925086 0.005478225786706407
101398846 -0.003935290222906823 0.005485169138208283
101428608 -0.003874938998213916 0.005549393748958566
101458370 -0.0038228527610976067 0.005607871821875234
101488132 -0.003743166960086837 0.0056603892337859585
101517894 -0.0036862920339701126 0.0057166708067245735
101547656 -0.0036216184739454034 0.005767933462692373
101577418 -0.003563308724590376 0.005819260132242975
101607180 -0.0034961910478095324 0.0058681885865640585
101636942 -0.0034242348207590497 0.0059210859758809815
101666704 -0.00335524344001156 0.005971520054072955
101696466 -0.0034491723655728597 0.0059193549275779415
101726228 -0.003546992950130381 0.005875820277570699
101755990 -0.003646305780373283 0.005819777353052935
101785752 -0.0037311250210991377 0.005767464189697367
101815514 -0.0038292462443494492 0.005704566811503089
101845276 -0.003916851986726756 0.005647430805474516
101875038 -0.004001184084100513 0.005578387031978606
101904800 -0.004085778412811951 0.0055174725899916595
101934562 -0.004169280457243458 0.005443093232435155
101964324 -0.004138403959428905 0.005452941992781068
101994086 -0.004052294002250344 0.00550264459799191
102023848 -0.0039682151438658105 0.005535203701531643
102053610 -0.0038786334591407903 0.005571314636150809
102083372 -0.0037961472467527364 0.0056119865749289215
102113134 -0.003718143319930464 0.005648747795558397
102142896 -0.0036246782166099866 0.005682661961098932
102172658 -0.0035377586103249197 0.005706099646279018
102202420 -0.0034546994854504093 0.00573749553614501
102232182 -0.003420825245447735 0.005763593108856422
102261944 -0.0035025224936344863 0.0057947385616583125
102291706 -0.003591162873036337 0.0058192971167208415
102321468 -0.003684090972486279 0.0058485405479084965
102351230 -0.003771697879683606 0.005864411590346268
102380992 -0.0038660993349336993 0.005897058990510532
102410754 -0.00396879701925461 0.005917076570349537
102440516 -0.004071810668052319 0.005935569633140978
102470278 -0.004175890068117794 0.005948367960704779
102500040 -0.004278852545646996 0.005966928872150312
102529802 -0.004228107010355111 0.005981113517895845
102559564 -0.004178337208820484 0.00600220358697854
102589326 -0.004116633416653048 0.006018688523282475
102619088 -0.004064588940099058 0.006022950624601087
102648850 -0.004004311366982331 0.006042391698272489
102678612 -0.0039603198241885025 0.006045882125523167
102708374 -0.003898091567872718 0.006064459473874453
102738136 -0.0038395027802173697 0.006072638069481799
102767898 -0.0037972813913631077 0.0060847232325484755
102797660 -0.0037673247851768314 0.006066696345711677
102827422 -0.0037611410863529196 0.0060325724129863985
102857184 -0.0037528843634674187 0.006009039009317095
102886946 -0.003742487474448706 0.005980997287397924
102916708 -0.003730189850593231 0.005949412771430179
102946470 -0.0037209630506025463 0.005920287096492684
102976232 -0.0037099208597258814 0.0058784144942353725
103005994 -0.003700555479953317 0.005860089943698422
103035756 -0.0036889256619525444 0.005825024990572752
103065518 -0.00367932630818596 0.005810891307987895
103095280 -0.0036823772534058797 0.005843696758670559
103125042 -0.003686848886037058 0.005869999531152164
103154804 -0.003694730403095249 0.005890985584139652
103184566 -0.0036997652035363213 0.0059116240863149325
103214328 -0.0037047229433686845 0.005945916219609567
103244090 -0.0037062209458757762 0.005966158189857721
103273852 -0.003707010896759605 0.0059995062622541125
103303614 -0.003716024527770444 0.00601943146825479
103333376 -0.0037133527733790067 0.006053371483081447
103363138 -0.00362997753878088 0.006040576531905432
103392900 -0.00353555267111132 0.006035164453944992
103422662 -0.003452191159961522 0.006024808384345647
103452424 -0.003372432204177166 0.006013074968798536
103482186 -0.003286192099210869 0.005997982089963056
103511948 -0.003202369426431054 0.005988915023570165
103541710 -0.003124967569136965 0.005974933983160215
103571472 -0.003054962929532502 0.00595877701427031
103601234 -0.002978395524954641 0.005941087553630014
103630996 -0.0029790577479240896 0.005934086471768798
103660758 -0.003033680841468357 0.005929160467935385
103690520 -0.0030779716968918607 0.005931580898248631
103720282 -0.003126634462301173 0.005919161635199114
103750044 -0.003172541193024756 0.0059084815632083785
103779806 -0.0032187352505719472 0.00590362277836682
103809568 -0.003265301144934605 0.0058916355035184284
103839330 -0.003312188491513459 0.005881353844015412
103869092 -0.0033706856859615276 0.0058712671442051265
103898854 -0.003491123778406677 0.005876016893364848
103928616 -0.0035215671529156166 0.005897795994220371
103958378 -0.0035669032081362705 0.005924266970892626
103988140 -0.0036133277148369548 0.0059418980807307365
104017902 -0.00365223424503151 0.005966640216821215
104047664 -0.003694198819104429 0.005985098233803236
104077426 -0.00373381723247319 0.0060026288574687595
104107188 -0.003702588427285625 0.0060246271953660205
104136950 -0.003746534854344816 0.006045786423281339
104166712 -0.003789733140376337 0.0060687281487850015
104196474 -0.003781607688030362 0.006108683358544895
104226236 -0.00376906645856249 0.006150484645771824
104255998 -0.0037545619384519034 0.006199238919800559
104285760 -0.003741232334159771 0.006236980800936905
104315522 -0.003730878105833862 0.00627225327362374
104345284 -0.0037202917995061715 0.00632381786926405
104375046 -0.0037075996402116096 0.006370459679384234
104404808 -0.0036937449957827203 0.006402079549914589
104434570 -0.0036755059349256308 0.0064567910208751895
104464332 -0.0036689577852700547 0.006432045642100669
104494094 -0.003664707185072966 0.006365378131714523
104523856 -0.003662287108858814 0.006314829420861354
104553618 -0.00365240805020728 0.006255382945683894
104583380 -0.0036556816533400757 0.006198680195499283
104613142 -0.003643194955134628 0.006143395954059609
104642904 -0.0036308831974931157 0.0060844472260565274
104672666 -0.0036303617843928154 0.006032536782809065
104702428 -0.0036230491281804265 0.005984135808604003
104732190 -0.0036138513887255573 0.005964020269178692
104761952 -0.0035945029453595683 0.0060373463386696365
104791714 -0.0035689179920465547 0.006106733247856385
104821476 -0.0035529895919176164 0.006175897439723578
104851238 -0.003533479726131101 0.006244380638127212
104881000 -0.0035069619009921124 0.006317474440740685
104910762 -0.003489654037366594 0.006385989431494902
104940524 -0.0034641292550943595 0.006465172378690872
104970286 -0.0034432514954348945 0.006537438317914964
105000048 -0.0033950216729769383 0.006614710131433806
