# HZ S RI R 50
90000000 5.674866216876245e-05 0.004993908150040866
90029762 9.687849624058357e-05 0.0050203496322181965
90059524 -0.00011273551340307548 0.005028130971121451
90089286 2.9028284091994294e-05 0.005061508866151566
90119048 -0.00013304534174001949 0.005072560110610579
90148810 4.408284233571607e-06 0.00510927333143987
90178572 -4.4567393285143984e-06 0.0051322020745793425
90208334 2.798150680872848e-05 0.005155561451791201
90238096 -0.00017578762456862336 0.005162847825274471
90267858 -4.2772389021063874e-05 0.005198476351490928
90297620 -2.468682506973974e-05 0.005169845781963753
90327382 4.702890626405285e-05 0.00512371055991327
90357144 2.6006852844801126e-05 0.005064934876458379
90386906 0.00010538268246283012 0.0050157405325745984
90416668 -5.640153753322876e-05 0.004951223734231066
90446430 0.00010539217198991617 0.0049150606847230245
90476192 0.0002291711599651285 0.004860314200372025
90505954 0.00025350791004849477 0.004808391419985346
90535716 0.00023085919624398727 0.004755354309830178
90565478 0.00030126494540858083 0.004728130291052716
90595240 0.0003039823512272476 0.004719513213034315
90625002 0.0003468325099736068 0.00471661891075411
90654764 0.0004397037648907404 0.0047158979158385735
90684526 0.0004396124666168696 0.004717024583152198
90714288 0.000443835473333362 0.004710400272145107
90744050 0.0004854258682681759 0.004704850090730704
90773812 0.0005769010320117531 0.004696860865771067
90803574 0.0005789421376055227 0.004688777998651646
90833336 0.0006703753202850505 0.00468493966665789
90863098 0.000692443523301544 0.004645099465957871
90892860 0.0006847886063955132 0.004605843480672539
90922622 0.0007493238984176149 0.004573250905225288
90952384 0.0007754817529907025 0.004527002662174266
90982146 0.0007633445377311384 0.0044907602584460336
91011908 0.0008293072449169747 0.004454820717362136
91041670 0.0008168835077908602 0.004418431100959399
91071432 0.0008436895644223332 0.004373492492048215
91101194 0.0007565266668608865 0.004340838763994307
91130956 0.0009120238260679086 0.004333087148832355
91160718 0.0008697031930481987 0.00434819464181131
91190480 0.0008710608849458689 0.0043569761475821525
91220242 0.0007498558037812623 0.004370646215334883
91250004 0.0008562310408102734 0.004384792811953776
91279766 0.0007395128939139358 0.004392900322449054
91309528 0.0008773819122924948 0.004406269223341529
91339290 0.0008344068527948436 0.004417049767974894
91369052 0.0008656186669079696 0.004424610829422169
91398814 0.0007236589175976247 0.004412957456925321
91428576 0.0008494641817270057 0.004377128767006073
91458338 0.0008979296123273257 0.004339532540185169
91488100 0.000870698882316251 0.004300266721915175
91517862 0.0008823975987121109 0.004255039510224076
91547624 0.0009327014277580884 0.004218598440772321
91577386 0.0009431858226835066 0.004174625272477062
91607148 0.0009272629689322995 0.004132880953488849
91636910 0.0009378159349191394 0.0040891598191044876
91666672 0.0009861119606943789 0.004044245329681275
91696434 0.0010286897180323874 0.004013567383821774
91726196 0.0011290709110812862 0.0039774186477669815
91755958 0.0012028930841755045 0.003940236554502298
91785720 0.0012431984337630368 0.0038991628262632
91815482 0.0013476004785850852 0.0038539378055861984
91845244 0.0014169650297439326 0.0038166904931587033
91875006 0.0014544635445994688 0.003764722154893438
91904768 0.0014411214991471698 0.0037254442403757432
91934530 0.001592517547747481 0.0036612877972783562
91964292 0.0016302455437067983 0.0036333188869599204
91994054 0.0016808405932948228 0.0036018208095768816
92023816 0.0015883414610469888 0.003595408424392047
92053578 0.0016920980895494824 0.0035611406370497038
92083340 0.0017140852250426923 0.0035323172628152323
92113102 0.0017599756882439625 0.003511302061516069
92142864 0.0017596428391733149 0.0034829160382870367
92172626 0.0018073205987984816 0.0034519189581778444
92202388 0.0017154487739153897 0.0034400608052433637
92232150 0.0018076904714965365 0.0033792702642238513
92261912 0.0017145152382948535 0.003313722444847272
92291674 0.0017995404214166985 0.003224559664831078
92321436 0.0017568687847439694 0.0031454270633198764
92351198 0.0017653613765270157 0.003073900043320254
92380960 0.0017230490674139368 0.0030019598010216724
92410722 0.0017065500024200546 0.0029254852412701707
92440484 0.0017213913675243613 0.0028482095231190684
92470246 0.0017052876313765819 0.002775303631925536
92500008 0.001669936118698254 0.002701941836774269
92529770 0.0016850558080019485 0.002657046090226102
92559532 0.001716989395963109 0.002600483419255573
92589294 0.001708828202269804 0.002566352232268159
92619056 0.001737452050187766 0.002508577662843751
92648818 0.0017592707919576124 0.0024571547068768405
92678580 0.0017462296544452187 0.002414884809799127
92708342 0.0017775725388020215 0.002352665692143295
92738104 0.0017904862220364539 0.0022945309766707893
92767866 0.0017748681976260253 0.002238830933233006
92797628 0.0018077424218760044 0.002154342341226412
92827390 0.001806034727361853 0.0020750127244832037
92857152 0.0018267786473568307 0.0019920915495755366
92886914 0.0017953617060459017 0.001936317861079107
92916676 0.0018465610306119982 0.0018129607817116943
92946438 0.001847001673282447 0.0017332747808447221
92976200 0.0018425474498852672 0.0016363187870717386
93005962 0.001798239091443774 0.0015665705130857924
93035724 0.0018260638222416562 0.0014378594846826966
93065486 0.0018042365467582373 0.0013569326188422126
93095248 0.001820271455698264 0.0012082246026541758
93125010 0.0018015376830576068 0.0011060913447136411
93154772 0.001789588542271011 0.0009780531684255476
93184534 0.0017461795785882234 0.0008846129702792992
93214296 0.0017272854331351 0.0007403213504902047
93244058 0.0016937359481193578 0.0006379002354422079
93273820 0.0016643250428430682 0.000495652803467938
93303582 0.001605456791911639 0.00037719147039754386
93333344 0.001552565967926117 0.00026063563902956017
93363106 0.001489477279772395 0.0001859390699321904
93392868 0.0014268055912685837 0.00011659724231849141
93422630 0.001343567283391392 2.6785202006270315e-05
93452392 0.001264924656848348 -3.406503485087635e-05
93482154 0.0011953963592513561 -0.00012801780353730925
93511916 0.001116997389023823 -0.00021245358715077823
93541678 0.001038202217968976 -0.0002933980537475915
93571440 0.0009624534135080473 -0.0003717823434944393
93601202 0.0008558116175301924 -0.0004557634838147486
93630964 0.0007763919703141738 -0.0005658445812287652
93660726 0.0006635034198334909 -0.0006352274264531328
93690488 0.0005522928756731243 -0.0007214540984235704
93720250 0.0004518559423159279 -0.0008404346390553879
93750012 0.00031979743517492715 -0.0009080800171777523
93779774 0.00019116588455316214 -0.0009783516957842019
93809536 9.974632214026172e-05 -0.0010717197034463455
93839298 -8.106225755890887e-05 -0.001129614384652847
93869060 -0.000223556204088992 -0.0011640087042802893
93898822 -0.0003622398518792483 -0.001191348465973741
93928584 -0.0005113788079980206 -0.001247699895105236
93958346 -0.0006547238318213071 -0.0013092236507466647
93988108 -0.0007490387863636423 -0.0013985203641391484
94017870 -0.0009372104016018782 -0.0013784886847708247
94047632 -0.0010504115155881338 -0.0014624277124660422
94077394 -0.0012214454563344124 -0.0014033185693883966
94107156 -0.0013765481013995034 -0.0014330357189708948
94136918 -0.001535465833687687 -0.0014403026184124168
94166680 -0.0016745279531725887 -0.0014475306465296627
94196442 -0.001889176676607205 -0.0015299277583181125
94226204 -0.0021170494739578163 -0.0016922410235244748
94255966 -0.002409189403493926 -0.0017084998551949533
94285728 -0.002702636121799557 -0.0018613552403358912
94315490 -0.003033655328161938 -0.0020339697752994475
94345252 -0.0033928238679926024 -0.002191701439475744
94375014 -0.0037901263814524694 -0.002411485889602903
94404776 -0.0042871816640936726 -0.002619558955685295
94434538 -0.004768931403535859 -0.002932273629858778
94464300 -0.004874537567390384 -0.002872559696951293
94494062 -0.00475414365045835 -0.002485945642976075
94523824 -0.004689444146180764 -0.0021605187810166213
94553586 -0.004575159098793266 -0.0019306940683817661
94583348 -0.00448769690946561 -0.0016547232996775984
94613110 -0.004402303887988718 -0.001468609057726401
94642872 -0.0043115403344277155 -0.0012874912151463365
94672634 -0.004193644713669165 -0.00107792431813674
94702396 -0.0041396488052073245 -0.0008944416214914117
94732158 -0.004113872732027006 -0.0007939309662608416
94761920 -0.0041603253974707224 -0.0006693926492595002
94791682 -0.004227156630928502 -0.000658584978921788
94821444 -0.0042855125701054975 -0.0004901010652076879
94851206 -0.004356794815093854 -0.00046243307590910674
94880968 -0.004374270126243061 -0.0002602832577643847
94910730 -0.004437410866143872 -0.00020865390782241741
94940492 -0.0044678797035252425 -6.714034286902798e-05
94970254 -0.0045082191094188845 -6.63602198240165e-05
95000016 -0.004525110891591853 9.543840371670985e-05
95029778 -0.004621756096901611 0.00012109397654522518
95059540 -0.0046913057464103465 0.00025181228042902
95089302 -0.004776414051003798 0.0003104897417626735
95119064 -0.004830669803320215 0.00039367667155234843
95148826 -0.004953573950189597 0.0004106195372666103
95178588 -0.005004633372985618 0.0005157911543880708
95208350 -0.005064279822945141 0.0005967203559367387
95238112 -0.005134404022043832 0.0006728222622922384
95267874 -0.005215648341856162 0.0007394603519405071
95297636 -0.0052617776908983555 0.0008460389871765978
95327398 -0.005285873585577191 0.0009051775407277039
95357160 -0.005334897856530689 0.0009864402888728968
95386922 -0.0053610873815913415 0.0010525838028919074
95416684 -0.005402627406527509 0.0011612539882746673
95446446 -0.005434775448053862 0.0012243645868700366
95476208 -0.005452287945422081 0.0012985789801995258
95505970 -0.005500284069882702 0.001387388518205395
95535732 -0.005523328849761902 0.0014613101005292966
95565494 -0.005525072410208217 0.0015476371676460285
95595256 -0.005541405409896778 0.0016598628252260388
95625018 -0.005539702749147922 0.0017316005752361664
95654780 -0.005556044306899186 0.001843477744287562
95684542 -0.00556377919890347 0.0019427198631808958
95714304 -0.005553104995091636 0.0020289215728389524
95744066 -0.0055547939600388814 0.0021411765740502247
95773828 -0.005556943684365232 0.0022069473073744587
95803590 -0.005555997907532888 0.002337107403982675
95833352 -0.005557624023966186 0.002422979485077577
95863114 -0.00549584749509599 0.002491424995403622
95892876 -0.005453152738674716 0.0025453714346467906
95922638 -0.005416974795669284 0.0025843147248796636
95952400 -0.005379920474926939 0.00262639925420625
95982162 -0.0053177738278542145 0.002682839355137283
96011924 -0.006149115783017413 0.0020817191515462513
96041686 -0.005236727286189862 0.002780955010410082
96071448 -0.005180605184763644 0.0028282581251724997
96101210 -0.005136479060981564 0.002881341175396404
96130972 -0.005988207264684087 0.002322438171651307
96160734 -0.005128523455262309 0.0029701348653360243
96190496 -0.0051470503814868345 0.0030159597390280635
96220258 -0.0051479292366767675 0.0030716164412232278
96250020 -0.005159128078132861 0.0031261993238700624
96279782 -0.005168052726964004 0.0031727694967030678
96309544 -0.005174284631682024 0.0032143767183333495
96339306 -0.005180633655694342 0.0032716122222121607
96369068 -0.005194440566327409 0.0033179786444291286
96398830 -0.005196009434627211 0.0033712882566157227
96428592 -0.005182633893788937 0.003449046043853374
96458354 -0.005187221608881085 0.003519092477597319
96488116 -0.004382227872461376 0.0039557035592952235
96517878 -0.00516877275897781 0.003651112021140163
96547640 -0.0051629973450940635 0.0037118846757560773
96577402 -0.005173916227404836 0.0037948841550784957
96607164 -0.005144114235568228 0.003858452467956513
96636926 -0.004328586393724344 0.004275928462520601
96666688 -0.005153035721645044 0.003986778106871183
96696450 -0.00509563392656015 0.003990508843111582
96726212 -0.005067332355175363 0.003966538291273877
96755974 -0.00590742896598664 0.003552068364468376
96785736 -0.004971543799206418 0.0039421052867112645
96815498 -0.00581808074650575 0.0035326446056943815
96845260 -0.004900016233346256 0.003914977330084207
96875022 -0.004855675958145843 0.0038911642455699484
96904784 -0.004836452865607401 0.0038819168974070783
96934546 -0.004734677505345894 0.0038927731812088253
96964308 -0.0047869706112597405 0.0038613022212396595
96994070 -0.004803183929717764 0.003857968980505035
97023832 -0.004068505794923767 0.004133414622374696
97053594 -0.004829709348902718 0.003837872338019863
97083356 -0.004861616524901992 0.0038325340376213182
97113118 -0.005668684952567972 0.003471692190552908
97142880 -0.00487388434245251 0.0038189609867176613
97172642 -0.004160703055946449 0.004100888694726792
97202404 -0.004929015492758535 0.0037939628416238606
97232166 -0.004910914232771877 0.003807403149418229
97261928 -0.004911892477654758 0.003844792290362537
97291690 -0.004867651430954105 0.0038967279563778276
97321452 -0.004854910297369879 0.0039281905763718285
97351214 -0.004851744221337299 0.003960600250899732
97380976 -0.004848725701595917 0.004007289042780835
97410738 -0.004801653966846747 0.004049221912259431
97440500 -0.004781158367065119 0.004098251831186299
97470262 -0.00404386301477277 0.004385301731974149
97500024 -0.00473644960258297 0.004167167770614486
97529786 -0.0047668749336075315 0.004200486237949635
97559548 -0.004008583596812004 0.004500759962674512
97589310 -0.004725578220554419 0.004302544667151729
97619072 -0.00465059310222567 0.0043741431920451415
97648834 -0.0047531606943557935 0.004372422232320007
97678596 -0.004715838702804659 0.004414228713709498
97708358 -0.003976553178342646 0.004686966975711939
97738120 -0.004713652176194556 0.004504043425825805
97767882 -0.004699733558583069 0.0045538338321527705
97797644 -0.005431462822829243 0.004318891119804945
97827406 -0.004603829716600176 0.004592524089817357
97857168 -0.0045009581064611864 0.004640473212287911
97886930 -0.004428768391084774 0.004658537461768501
97916692 -0.005078975135705399 0.0044545761812802565
97946454 -0.004277156879435813 0.004694673086460211
97976216 -0.004909199643078987 0.004519408264999024
98005978 -0.003482555228792299 0.004906483010523032
98035740 -0.004076160015969187 0.004759684467777405
98065502 -0.0040844635501729384 0.0047661105486625855
98095264 -0.004149978380960742 0.0047875487565115175
98125026 -0.00418169347791674 0.0048113953980717895
98154788 -0.0035809326124974874 0.005005499512187409
98184550 -0.0043194553929948466 0.004853188082141011
98214312 -0.00439463142526001 0.004871552409354872
98244074 -0.0037597159482377256 0.005069581502901635
98273836 -0.004571468410835133 0.004882251606900307
98303598 -0.004606040248719085 0.00490903165523067
98333360 -0.004681114994339027 0.0049171773151427435
98363122 -0.004712484343468992 0.004880255626534633
98392884 -0.004663485977613318 0.004872575776715636
98422646 -0.00469170988158781 0.0048449303992385735
98452408 -0.004666739198293257 0.004814689018949775
98482170 -0.004622577837835543 0.004795971740222412
98511932 -0.004648017676630656 0.00476906887398825
98541694 -0.0038916681042950717 0.004952624736004073
98571456 -0.004576156339289399 0.004736084984143173
98601218 -0.005268434751978808 0.004491595817937849
98630980 -0.004532335123745967 0.004731338742959142
98660742 -0.004473873758580992 0.004774071548900347
98690504 -0.0037360162179744215 0.0049843195179024476
98720266 -0.005085883437954326 0.004661162572686766
98750028 -0.004326110471825747 0.004891251174579005
98779790 -0.00429023525109596 0.0049240713692651145
98809552 -0.004288740643233192 0.004940577794602591
98839314 -0.004191185793500007 0.004996025553661125
98869076 -0.0041845194474985385 0.005014609412151389
98898838 -0.004789663403108684 0.004900541243107318
98928600 -0.004124015458400286 0.005067231752492294
98958362 -0.004829378918801633 0.004932784728976199
98988124 -0.004209215441276476 0.0050938640184891555
99017886 -0.004173300862948489 0.005120835280280133
99047648 -0.004240863533746122 0.005132764713581756
99077410 -0.004201624223630316 0.005155335137793257
99107172 -0.004220623394717662 0.005180182319805841
99136934 -0.004280810701432438 0.005184728536212503
99166696 -0.004311605731894757 0.005199294497083959
99196458 -0.00425995265219704 0.0051870633520819396
99226220 -0.004262360064300043 0.005167555344817682
99255982 -0.00431900076375787 0.005123943205904535
99285744 -0.00428636113730819 0.005123100308835331
99315506 -0.004334283356016957 0.0050824351220666725
99345268 -0.004337842357940294 0.005058933384648576
99375030 -0.004298882145746164 0.005048716806135506
99404792 -0.0043503525598605364 0.005018659594868222
99434554 -0.004359148841937887 0.00498588366589991
99464316 -0.004255036700587765 0.005025472086426525
99494078 -0.00423060731181845 0.005068579290575309
99523840 -0.0041014900442230655 0.00513287252468769
99553602 -0.004023747394813127 0.00518409910896817
99583364 -0.004555530156850393 0.005101705454290071
99613126 -0.0032351918387421214 0.005392637431742793
99642888 -0.0037903188938129702 0.005324461153546328
99672650 -0.003714042072512021 0.0053653263693898825
99702412 -0.004216290191178837 0.005295918648921613
99732174 -0.0035911043987052987 0.005420447439099769
99761936 -0.003476653780448844 0.005418435175429401
99791698 -0.0037356756945502675 0.005361373663077314
99821460 -0.0037147746370995364 0.005344061782908433
99851222 -0.0038098408217646837 0.005305704745943485
99880984 -0.004386165509427438 0.005173675114349206
99910746 -0.0038359806921876905 0.005262706012191941
99940508 -0.004467122100527228 0.005112685468124237
99970270 -0.0039159307976837894 0.00519803456045865
100000032 -0.00395340795472173 0.005179234905909893
100029794 -0.0039331664614807105 0.0051703430106182415
100059556 -0.003918323772964933 0.005188282880039934
100089318 -0.003912451707108642 0.005183768461455641
100119080 -0.003889145982220736 0.005206311901764022
100148842 -0.003874902507801884 0.005206921555790507
100178604 -0.003869796452643434 0.005212103894061961
100208366 -0.0038534455918181284 0.005222413862450345
100238128 -0.0038403129152307152 0.005225841747840147
100267890 -0.0038142915689275037 0.005231216714903826
100297652 -0.003803588863975088 0.005246035583923883
100327414 -0.003819612587735427 0.005246933908757795
100357176 -0.0038267555516365587 0.005246420882293313
100386938 -0.003831879017633691 0.005245408890400066
100416700 -0.0038288166166467975 0.0052497241175453475
100446462 -0.0038372424578798905 0.0052567874666295655
100476224 -0.003837261705565222 0.005270167370967435
100505986 -0.0038452239868094337 0.005262186047683401
100535748 -0.003846876999354232 0.005260380605505727
100565510 -0.003859062862229278 0.005284137786548355
100595272 -0.003906386869505072 0.005318614248562643
100625034 -0.003954071783844262 0.0053613132155426345
100654796 -0.004008831601781348 0.0054118011052399296
100684558 -0.004048542229733419 0.00544437994951161
100714320 -0.004105201396857848 0.005477407657895426
100744082 -0.0041610477137637636 0.005516849427594379
100773844 -0.004217780835472042 0.005554866473404361
100803606 -0.004270873558194878 0.005601490208866289
100833368 -0.004313338350606118 0.00564511461915021
100863130 -0.0042710229080669205 0.005631201331141526
100892892 -0.004219983861521785 0.005619418273249836
100922654 -0.004173477790734718 0.005602836459041659
100952416 -0.004123431041320309 0.005590926305354998
100982178 -0.004073926527929475 0.005583619466469125
101011940 -0.004034947606603287 0.005564215010280591
101041702 -0.003981210573054363 0.005549258620804016
101071464 -0.003941735756079231 0.005538659581740586
101101226 -0.003890402564195822 0.0055318421615761825
101130988 -0.003878201435953243 0.005515135235650348
101160750 -0.003882598234299652 0.005505957509757836
101190512 -0.0038838079445481497 0.005507164997699373
101220274 -0.003892975319216073 0.005504882831682944
101250036 -0.0039059781098656978 0.0054992279847513705
101279798 -0.003908143333087983 0.005485306708120991
101309560 -0.0039175433511656425 0.005479908573837211
101339322 -0.003924555221438185 0.0054708892104245775
101369084 -0.003921454091711531 0.005463118062381916
101398846 -0.0039055852915557405 0.005482721983004372
101428608 -0.0038489293519238443 0.005533379557785713
101458370 -0.003792733323804317 0.005595225815234329
101488132 -0.0037231402211613455 0.005651098609597776
101517894 -0.0036614693171758924 0.005701733159588144
101547656 -0.0035977241863021097 0.005752023394929679
101577418 -0.003539198601486613 0.005809590805746306
101607180 -0.003467184511406136 0.005850809772220328
101636942 -0.003399244613906157 0.005905080810943564
101666704 -0.0033356329457845412 0.005960002868845358
101696466 -0.003434249989442013 0.005908274495762886
101726228 -0.0035256134034785413 0.005858752167881738
101755990 -0.0036229310110882013 0.0058148413505876234
101785752 -0.0037176916377985574 0.005756785056432304
101815514 -0.003803412370366144 0.005700874325081339
101845276 -0.0038940168393876862 0.005640197578250805
101875038 -0.003968535636482 0.0055729894395574915
101904800 -0.004061325227562765 0.005504929353055767
101934562 -0.0041573255585743984 0.005432473069597795
101964324 -0.004123591941283896 0.0054407685594657544
101994086 -0.004035066319434931 0.005483474777359339
102023848 -0.003955865854792033 0.005533336488514122
102053610 -0.0038741954289426383 0.005578444572307958
102083372 -0.003794862619391047 0.00561826607144682
102113134 -0.0037003798518460656 0.005642467960297383
102142896 -0.003609377265621345 0.005674064305824189
102172658 -0.003528018597015114 0.0057082926224183116
102202420 -0.0034465170410243177 0.005736335886355827
102232182 -0.0034163252699120046 0.005764054509003719
102261944 -0.003504322872482151 0.005796559127147073
102291706 -0.003588072828650899 0.005814930204516007
102321468 -0.0036789401335567957 0.00584826930496534
102351230 -0.003772943066610063 0.005868794149839547
102380992 -0.00386280433044 0.005892869475563979
102410754 -0.003961351474333949 0.005913973097379753
102440516 -0.004061958751088309 0.005933217388832676
102470278 -0.004173620564232922 0.005954291875094673
102500040 -0.0042713004632581745 0.005963850046603371
102529802 -0.004217309721059071 0.005982304916807026
102559564 -0.004168809442252213 0.0059964368058186565
102589326 -0.004110162677917999 0.006012963619568937
102619088 -0.00405323713451357 0.006023066938014673
102648850 -0.003999395027178343 0.006045490855883491
102678612 -0.003956362345156194 0.006051250761540674
102708374 -0.0038968247699892196 0.00606574976341765
102738136 -0.00384162241012989 0.006066289493822002
102767898 -0.0037857870432217704 0.006087217186710139
102797660 -0.0037636957169888316 0.006061869492930202
102827422 -0.003749401515852073 0.0060313113202229846
102857184 -0.003733501801618985 0.00600435906118925
102886946 -0.003724398651327474 0.0059770513269938085
102916708 -0.0037304404660851425 0.005945922310908403
102946470 -0.0037127592512584003 0.005917429531025124
102976232 -0.003707321649591535 0.005888473597005842
103005994 -0.003700507519764152 0.005853517664684141
103035756 -0.0036809180984331007 0.0058238761690243635
103065518 -0.0036774322569059 0.005813822388993003
103095280 -0.0036843331015249605 0.005835256595409715
103125042 -0.0036772650713968475 0.005867341756643461
103154804 -0.0036871785858422264 0.005887240171852748
103184566 -0.003688219370315623 0.005915527225579815
103214328 -0.003686432655801457 0.005937018566611839
103244090 -0.0036959520002126317 0.00596856279346488
103273852 -0.0036962775897375127 0.005998021295676484
103303614 -0.0037006468011092425 0.006021431682211484
103333376 -0.003709619860385404 0.006045458895176106
103363138 -0.003613450864578598 0.006038157479033005
103392900 -0.003535496695039389 0.006037814425166069
103422662 -0.003447406947617905 0.006017223018834987
103452424 -0.0033626738786577143 0.006007555721010238
103482186 -0.0032789533564747254 0.006000396031287844
103511948 -0.003201240133172568 0.0059845660093948705
103541710 -0.003124898894857844 0.005978774541715416
103571472 -0.00304004419653511 0.005958876110576158
103601234 -0.0029669794872211226 0.005944044453124478
103630996 -0.002970353550214189 0.005932802095969138
103660758 -0.0030190586543519245 0.005926694253847163
103690520 -0.003073585488032435 0.005921803446797676
103720282 -0.0031160419130269457 0.005918481247703105
103750044 -0.003159849891142703 0.00590573987989275
103779806 -0.003223894100592464 0.005900657838131679
103809568 -0.0032578671832126527 0.005888538238867967
103839330 -0.003310456370810379 0.005876329923584246
103869092 -0.0033611407216372164 0.005870526964288336
103898854 -0.003404081761728192 0.005873280680455366
103928616 -0.003440979568131051 0.005892497714008935
103958378 -0.003487482580872137 0.005913186662708158
103988140 -0.003521625902438206 0.005938502362987888
104017902 -0.0035662825417781996 0.005960149444534958
104047664 -0.0036114818110239678 0.005979321961058966
104077426 -0.003648651741483954 0.0059979326030687044
104107188 -0.0036909136574349993 0.006025605195514119
104136950 -0.0037469590545144657 0.006046112522954993
104166712 -0.003783947392576331 0.006066930200464131
104196474 -0.0037755737978195057 0.0061047075527646735
104226236 -0.0037660113852740667 0.006146335563866858
104255998 -0.003761425896854524 0.006198217397249012
104285760 -0.003736886766452034 0.006235404271967457
104315522 -0.0037256364766334337 0.006279041186410051
104345284 -0.003708350672445942 0.006326528602557667
104375046 -0.003702927826029323 0.006366448135534268
104404808 -0.0036840296090741706 0.006416037097108991
104434570 -0.0036724981295329848 0.006451603105097721
104464332 -0.003658668668452603 0.006429064835023812
104494094 -0.0036602572528607754 0.006374348317638263
104523856 -0.0036573620141802225 0.006314068646957021
104553618 -0.0036422598837031143 0.006250491797352207
104583380 -0.003645722151230974 0.006196143444750427
104613142 -0.0036360040816839677 0.006145378498667346
104642904 -0.0036262009969609335 0.006085858483267552
104672666 -0.00363081641549955 0.0060356862587722365
104702428 -0.0036169932377140474 0.005973368162237648
104732190 -0.003594712246739741 0.005967710027114551
104761952 -0.0035887677604237514 0.006028949175451722
104791714 -0.003567851998313658 0.006109443479860919
104821476 -0.003552177052949447 0.00617323484368254
104851238 -0.0035315003339773023 0.006243595338873692
104881000 -0.003510579120869284 0.006318105607380228
104910762 -0.003485271669498661 0.006384123059044798
104940524 -0.00345920079538739 0.006460770665568618
104970286 -0.0034315299296125592 0.006539883999332763
105000048 -0.003395850274080673 0.006616953267297211
