# HZ S RI R 50
90000000 7.457011640201493e-05 0.004976598262990772
90029762 0.00011367562670911463 0.005007140730424056
90059524 -9.196875877441211e-05 0.0050094044993111994
90089286 4.318123236003908e-05 0.0050460847778551615
90119048 -0.00011042182191617444 0.005059507303401559
90148810 2.366034748711106e-05 0.005092777924824463
90178572 1.6627491575358495e-05 0.005110148107738746
90208334 5.41894747407925e-06 0.005135294657022227
90238096 -0.00021006133772842587 0.005143903370196561
90267858 -1.9749531267000356e-05 0.005178270710325362
90297620 -3.0673937797777952e-06 0.0051487318926792406
90327382 6.830175942846825e-05 0.005105020390667126
90357144 -0.00019718818667803777 0.005047986881991111
90386906 7.717684314034292e-05 0.004982162779767269
90416668 -8.547727221780016e-05 0.004936631423312063
90446430 0.00017766034461639407 0.0048882767401798866
90476192 0.0002497750500609376 0.0048408255902826864
90505954 0.00022646415611711642 0.0047938235026146955
90535716 0.00021029885200882274 0.004739241758498103
90565478 0.0002800148059020916 0.00470872548173624
90595240 0.0002831437118480506 0.0047045689675192124
90625002 0.0003306931806650953 0.004701931623500285
90654764 0.0004156944912386537 0.004701099828109171
90684526 0.0004585519817387214 0.004695976007643862
90714288 0.0004589741385504092 0.004681969859326009
90744050 0.0005108744988054382 0.004677110508571431
90773812 0.0005993499897702923 0.004671590995098742
90803574 0.0006029909728401138 0.004647486695501745
90833336 0.0006924953013978689 0.004654006666612762
90863098 0.000716800643375867 0.00461501042908524
90892860 0.000700470107338696 0.004580036320492765
90922622 0.0007725538110532233 0.004537073960803379
90952384 0.0007968140906398361 0.004504669124913833
90982146 0.0007822065941228901 0.0044614878746276785
91011908 0.0008564875511271156 0.00440562157643787
91041670 0.0008388291173856327 0.004384714277858682
91071432 0.0008643840173729444 0.004340978148979785
91101194 0.0007774719233377515 0.004309091703274784
91130956 0.0009371592386635794 0.004302068006891624
91160718 0.000891449709702156 0.004309032870222435
91190480 0.0008850759668644122 0.004326424522836773
91220242 0.0007716918122664708 0.004336986473652529
91250004 0.000878205063148095 0.0043479585507807846
91279766 0.0007691851483371093 0.0043576155212539415
91309528 0.0009018254299982117 0.004365645483248103
91339290 0.0008616719158520987 0.004380152893785879
91369052 0.000888076526467109 0.004382804602068463
91398814 0.0007475278931421936 0.004369304258539825
91428576 0.0008660360736754552 0.004339198328660439
91458338 0.0009121859681781865 0.004295610005870334
91488100 0.0008896479692280869 0.004249864586546048
91517862 0.0009126943564621137 0.00420677068965307
91547624 0.0009565100865617885 0.004168926134872866
91577386 0.0009684240267958509 0.0041238083160489315
91607148 0.0009533762725148257 0.0040837294776682916
91636910 0.0009596708130236295 0.004038041655172885
91666672 0.0010069189731284288 0.003997769992421293
91696434 0.0010521086296101784 0.003963996271809966
91726196 0.001152174511809622 0.003926079125108562
91755958 0.0012260106562652386 0.0038881012031934266
91785720 0.0012663891414932808 0.003842935296474337
91815482 0.001367067348729492 0.0038012293989302588
91845244 0.0014338645474901656 0.0037526651863534393
91875006 0.0014751557779447188 0.003707233481657737
91904768 0.0014529740090765556 0.003666108463238126
91934530 0.001608125881432806 0.0035959466598916843
91964292 0.0016440620046151468 0.0035674476709855155
91994054 0.001686740883063477 0.0035406569049489544
92023816 0.0016023533161662303 0.003531417433731029
92053578 0.0017042627862438283 0.0034952216048686137
92083340 0.0017287687741215103 0.0034671840602465078
92113102 0.0017685199910626296 0.003438138362756305
92142864 0.0017647769832371673 0.003409013184866191
92172626 0.0018143400259896321 0.0033754331037895054
92202388 0.0017238435713147434 0.003358989928719447
92232150 0.0018125244933332384 0.003302888242912898
92261912 0.0017185163242960273 0.0032344278021028757
92291674 0.0018046487780451004 0.0031441722326461955
92321436 0.001574280618015078 0.0031267715154538822
92351198 0.001768891285989383 0.002993843489133872
92380960 0.0017283009185815408 0.0029244449530404894
92410722 0.0017086581223041473 0.0028462197862939537
92440484 0.0017145268284192436 0.0027595201592503418
92470246 0.0016990912988574163 0.0026960609384918143
92500008 0.0016687650572039603 0.002614918715564056
92529770 0.001683823887975434 0.002568658549490023
92559532 0.0017110771170364852 0.0025168065735235346
92589294 0.0017045769868373566 0.0024694001184013994
92619056 0.0017265753204050787 0.0024133714459255926
92648818 0.0017438711070760745 0.002362137963309931
92678580 0.0017405408485726686 0.002313824325829764
92708342 0.0017554095954151773 0.0022506556247638807
92738104 0.0017665062343807695 0.002193577294240252
92767866 0.0016212139723519327 0.0022017202046810003
92797628 0.001801840689346888 0.002019751595178043
92827390 0.001784036879926762 0.0019763254425585277
92857152 0.0017910153494278258 0.0018935531028556067
92886914 0.0017584445724880661 0.0018260933684527162
92916676 0.0018044898161472304 0.0017185576081024273
92946438 0.0018041926632949875 0.0016163287547599303
92976200 0.001794363728245501 0.0015380257169665195
93005962 0.0017631392762151308 0.0014314381133095678
93035724 0.0017897242555202253 0.0013177416808545985
93065486 0.0017458056771836193 0.0012381023125123706
93095248 0.0017615316067799318 0.0011008576167405276
93125010 0.0017439617499240745 0.0009680333193242064
93154772 0.0017252826357556394 0.0008564667704179479
93184534 0.001677911296490402 0.0007429686944347056
93214296 0.0016580026803188824 0.0006239349896582616
93244058 0.001615068418624028 0.0005272692636367447
93273820 0.001559698389971643 0.00039084170514061897
93303582 0.0015091503478041792 0.0002804252983333475
93333344 0.001452075934631396 0.0001632105532209716
93363106 0.0013702952646882183 6.510798374686614e-05
93392868 0.0013052653577607968 8.471545629986577e-06
93422630 0.0012465441069671628 -7.248145371169937e-05
93452392 0.0011612067294949685 -0.00015302018387756828
93482154 0.0010741637554047853 -0.0002256529376362063
93511916 0.000994752009782043 -0.0003133488734968396
93541678 0.0008996137412392669 -0.00038429711273563216
93571440 0.0008264100011458092 -0.00047383585090037466
93601202 0.0007414271316439608 -0.0005534331962335134
93630964 0.0006249202115541043 -0.000640227484082713
93660726 0.0005232759624105633 -0.0007362134240822044
93690488 0.000395585459505913 -0.0008192863662063835
93720250 0.0002851986596857612 -0.0009036694206339004
93750012 0.00016669986583378 -0.0009615559599609473
93779774 1.013507216803977e-05 -0.0010569363110715306
93809536 -8.932761710587863e-05 -0.0011334358999772665
93839298 -0.0002606375583412573 -0.0011530091539143585
93869060 -0.00040892592945905847 -0.0012102273323534693
93898822 -0.0005471833669487688 -0.00125089193421364
93928584 -0.0007128316328473256 -0.0013066319426840078
93958346 -0.000857532640197867 -0.0013091745977126508
93988108 -0.0009665090163208596 -0.0014183312367672973
94017870 -0.0011307422310638997 -0.0013962801624667546
94047632 -0.0012355705432784264 -0.001463846516294828
94077394 -0.001421266859737087 -0.0013900568470855436
94107156 -0.0015778232499962818 -0.0014469292128320077
94136918 -0.0017279286719750024 -0.0013970626583990364
94166680 -0.00187042098104833 -0.0014153487261227362
94196442 -0.0020935932633960896 -0.0014888420052029813
94226204 -0.002305397047392452 -0.0016578649300269142
94255966 -0.002630362762011579 -0.0016678208780746694
94285728 -0.002913933826383476 -0.0017959968633231597
94315490 -0.0032575548061671237 -0.0019547697580832198
94345252 -0.0036479376130481365 -0.002082667412124385
94375014 -0.004071885670348269 -0.002320755551281457
94404776 -0.004519447677187614 -0.002531740172838719
94434538 -0.005053856834179891 -0.0028166900417117813
94464300 -0.005131027774050898 -0.002746162874915342
94494062 -0.005032692225806403 -0.0023498205067489612
94523824 -0.004871837330055031 -0.00203538063060889
94553586 -0.004785492579643963 -0.001820397666958713
94583348 -0.004677558516425295 -0.0015196372062001682
94613110 -0.004560181306338388 -0.0013480827910787253
94642872 -0.004462920913049587 -0.0011646382988524464
94672634 -0.004345337953440953 -0.0009515540575561561
94702396 -0.0042422461203706595 -0.0007722590145078057
94732158 -0.004198786610140251 -0.0006598839281610812
94761920 -0.004265377198294881 -0.0005669951015545955
94791682 -0.004330087724094034 -0.0005358900973189051
94821444 -0.0043744094090157745 -0.0003660789942870424
94851206 -0.004435795600637018 -0.00034543154321531165
94880968 -0.004464696158070399 -0.0001552554753455517
94910730 -0.004476255069586302 -8.493422949312113e-05
94940492 -0.0045020757662993715 4.22353300387572e-05
94970254 -0.004579220230465895 6.251153307224151e-05
95000016 -0.0045590186044422686 0.00022035875604087206
95029778 -0.004676183412361736 0.00022908936102064974
95059540 -0.004724932874503766 0.0003713351881429992
95089302 -0.004813281577418569 0.00043862971160104903
95119064 -0.004879071220185427 0.0005186310438660131
95148826 -0.0049724445166173786 0.0005129985611585633
95178588 -0.005022374934835343 0.0006494628847185283
95208350 -0.005083503996887472 0.0006994892386519224
95238112 -0.005144782837910674 0.0007956569362653567
95267874 -0.00523489371358775 0.000844642755332477
95297636 -0.005263400499665683 0.000928316715936576
95327398 -0.005287606589506574 0.0009969854202444806
95357160 -0.005343523137006235 0.0010746042525884274
95386922 -0.005358459983375787 0.0011612919891294008
95416684 -0.00538794875294827 0.001250642126665125
95446446 -0.005424560756355089 0.0013199823931570997
95476208 -0.0054646965008318775 0.001398100841338351
95505970 -0.005479466709280507 0.0014738175177450926
95535732 -0.005512731610913749 0.001547242036975165
95565494 -0.005511761092839933 0.0016310691181197433
95595256 -0.00552120578652537 0.0017312186391171007
95625018 -0.005539011940373872 0.0018258189101424533
95654780 -0.00554727838123135 0.001919615821158536
95684542 -0.005536467568406369 0.002011314002801107
95714304 -0.005531390617734092 0.0021112441736970146
95744066 -0.005526786914794605 0.0022199789952436827
95773828 -0.005549382447347355 0.0022972499350452464
95803590 -0.005541977566392382 0.002404953296926744
95833352 -0.00553205716495778 0.0024809844937822728
95863114 -0.0054840797525335825 0.002541965513314885
95892876 -0.005426326053837217 0.0025888338204673226
95922638 -0.005372365549404355 0.0026431087256559302
95952400 -0.005340967831802786 0.002680479151499465
95982162 -0.005291871934484403 0.0027376931834128936
96011924 -0.0061018845719641255 0.0021307509724227103
96041686 -0.0051961446727784065 0.002824304377716467
96071448 -0.005149296952081074 0.002873015754778308
96101210 -0.005105354507158853 0.002914023205931849
96130972 -0.005952151515349278 0.002373846625081887
96160734 -0.005087759515897851 0.003003721463401262
96190496 -0.005112502366356475 0.0030632535122303256
96220258 -0.005124729702550757 0.0030984593684005813
96250020 -0.0045211288548679465 0.0025312335572886245
96279782 -0.005125685979223479 0.0031959211720696008
96309544 -0.005143682038029315 0.0032373518540859516
96339306 -0.005153701763678559 0.0032909836461890644
96369068 -0.005172751283536973 0.003345527423192378
96398830 -0.005159514677386804 0.003400486029688296
96428592 -0.005148235264478559 0.003463629127090868
96458354 -0.005365442490195751 0.0035031841967019636
96488116 -0.004348342442623036 0.003971302204744956
96517878 -0.005143963006617625 0.003671885438648747
96547640 -0.005132037343643681 0.0037432329513363348
96577402 -0.005126184022911937 0.003808656861326335
96607164 -0.005116483803502485 0.0038783444492120484
96636926 -0.004301317186647884 0.004282962535709435
96666688 -0.0051120613489090425 0.003999401980912677
96696450 -0.00507626095325819 0.003995327086238819
96726212 -0.005030342674624184 0.00398015906283069
96755974 -0.005877243625952839 0.003578461110605618
96785736 -0.004954448578055545 0.003944672512013659
96815498 -0.0057930629154394585 0.003551613929569493
96845260 -0.004870726890879876 0.003915759620048327
96875022 -0.004837110098498092 0.003903450871375118
96904784 -0.0048191543808324775 0.0038850488094140405
96934546 -0.004712784896658652 0.0039000583654166896
96964308 -0.004766943365101527 0.0038761489292948306
96994070 -0.004772587870619482 0.003860812002186623
97023832 -0.004056953409498027 0.004143564030733076
97053594 -0.004805579752721326 0.0038441073941866194
97083356 -0.0048373927303624895 0.003841515538783481
97113118 -0.005644812445752922 0.0034673100036285527
97142880 -0.004853573386203328 0.003823589433443715
97172642 -0.004141221655164985 0.004110143481417366
97202404 -0.004900274844714498 0.0038041100509017076
97232166 -0.0048921864489523985 0.0038031504053906286
97261928 -0.004885164888043264 0.0038444857261792733
97291690 -0.004853772523632504 0.0038891155883379585
97321452 -0.004845079370606397 0.003928672505258108
97351214 -0.00484412149301376 0.003964695514781581
97380976 -0.00481945174247232 0.004006607643908955
97410738 -0.004790049570217613 0.004050592721320631
97440500 -0.0047734348251691336 0.004093493329780228
97470262 -0.004023286446329537 0.00438333457820239
97500024 -0.004725567266349461 0.004178576038124931
97529786 -0.0047486451199393685 0.004208589866244921
97559548 -0.004002823194942729 0.0044987170396336785
97589310 -0.0047206996443205414 0.004305918072808819
97619072 -0.00462771009563948 0.004369164879630499
97648834 -0.004737143984845193 0.004370125869386779
97678596 -0.004708575582418691 0.004423234119360539
97708358 -0.003965380746251668 0.004680381294922984
97738120 -0.004698741877121496 0.004507300552756634
97767882 -0.0046944986878765995 0.004544890128362428
97797644 -0.005419137081598237 0.004322438870402573
97827406 -0.0046037573142492004 0.004599446042826346
97857168 -0.004492816395337971 0.004625052078013205
97886930 -0.004419743580610662 0.004648224872869723
97916692 -0.005071842272130511 0.0044588108106055225
97946454 -0.004288639259818872 0.004688639630745182
97976216 -0.004909484490490167 0.004504385241392652
98005978 -0.0034811877715893755 0.004912001382887438
98035740 -0.004072353553728355 0.0047599036847111535
98065502 -0.004080032382501174 0.004761457182758612
98095264 -0.0041563965847185675 0.004779546502509218
98125026 -0.004186403475994653 0.004798514808561404
98154788 -0.003578283744957235 0.00500313924261341
98184550 -0.004322262959192444 0.0048384998456951454
98214312 -0.004396772978668294 0.0048579763657841946
98244074 -0.003762828218572918 0.005061784965512598
98273836 -0.004583715976670251 0.0048752230689671746
98303598 -0.004613782565070242 0.004912275715161241
98333360 -0.004696538567318096 0.0049183725872013395
98363122 -0.004716704568478669 0.004877426657066578
98392884 -0.004664781319970016 0.004868100738203626
98422646 -0.0046967444264386735 0.004831949963483264
98452408 -0.004687546234841719 0.004809451381796209
98482170 -0.004628488384631112 0.004802304360613931
98511932 -0.004659091863008646 0.004764041194944074
98541694 -0.003909284190325602 0.0049367255144098805
98571456 -0.004593394440928582 0.004732768938909918
98601218 -0.005272442049848526 0.004496576673458472
98630980 -0.004537766617726715 0.004725939683252474
98660742 -0.004493654629803848 0.004757359264512912
98690504 -0.003757746425705855 0.004969101658972044
98720266 -0.005093901131753388 0.0046504818356160925
98750028 -0.00435185520638289 0.004878123581255957
98779790 -0.004311173830541604 0.004918291942131453
98809552 -0.004295113796469128 0.00494359207979828
98839314 -0.004205858583883216 0.00498890285089102
98869076 -0.004204863685580095 0.005016052069074599
98898838 -0.004817482098183411 0.004900379565077375
98928600 -0.00415004961124439 0.005063468583298696
98958362 -0.004840548339793637 0.00494049983181948
98988124 -0.00422651015743842 0.005097751693953432
99017886 -0.004191970878135307 0.005124887853148705
99047648 -0.0042589312455803535 0.005126426370470368
99077410 -0.004226238712807998 0.005146292441809519
99107172 -0.004236031315424868 0.0051764636206071465
99136934 -0.00430628184151046 0.00517805793714341
99166696 -0.004324670850398174 0.005201553971204092
99196458 -0.004286862966024718 0.0051860362547327035
99226220 -0.00428738785850302 0.005163147446555341
99255982 -0.004350875232351152 0.005131571415276761
99285744 -0.004302411359301388 0.005119960102677761
99315506 -0.004361726648392719 0.005083777815292126
99345268 -0.0043662010957737475 0.005063907557814602
99375030 -0.004320202630896323 0.005052517165162892
99404792 -0.004375664123778791 0.0050147274640327645
99434554 -0.004384502400471582 0.005003809632261625
99464316 -0.004279587566349077 0.005038351172028892
99494078 -0.004251085105363286 0.0050811912078095305
99523840 -0.004121456313193517 0.005140643087321366
99553602 -0.00404819821621695 0.005194158982149602
99583364 -0.004578235317449604 0.005125413386971206
99613126 -0.0032521767325936254 0.005398346955340936
99642888 -0.0038093491953392422 0.005328226469348521
99672650 -0.0037286398754651866 0.005370368915307639
99702412 -0.004242246697881689 0.005303756330832362
99732174 -0.0036118564363007127 0.0054325178508941125
99761936 -0.0034939194417425135 0.005435523521018527
99791698 -0.0037485135993307536 0.005371722681999529
99821460 -0.0037352040811097892 0.0053578283867947215
99851222 -0.0038272050600456835 0.005321157465227285
99880984 -0.004411180909989214 0.0052031012510512205
99910746 -0.0038559118056980504 0.005274675944431185
99940508 -0.004491466263162539 0.00513201935812044
99970270 -0.003932885172759851 0.005217458812890937
100000032 -0.003983454668972465 0.005195938979562587
100029794 -0.00395475186265661 0.0051957144503325565
100059556 -0.003939311261254826 0.005196683349609716
100089318 -0.003927399462796286 0.005211637376123585
100119080 -0.003909381125504146 0.005219657481682615
100148842 -0.0038911577061414163 0.0052245737584595865
100178604 -0.0038867753099102935 0.005233161443575539
100208366 -0.0038657526379386404 0.005243195129693776
100238128 -0.0038552102109045776 0.005255847880944841
100267890 -0.0038344092007755047 0.005258250300356417
100297652 -0.003829649089801524 0.005262665179851703
100327414 -0.0038374738608224646 0.005266891356913111
100357176 -0.0038354994334147854 0.005270362880330183
100386938 -0.0038408986952203424 0.005272132719434593
100416700 -0.0038518570208298433 0.005278370667600903
100446462 -0.003845692527502455 0.005281159708199521
100476224 -0.00384976978039211 0.00528872444069836
100505986 -0.0038562365816584656 0.005283546101623032
100535748 -0.0038485593513842313 0.005291294186523556
100565510 -0.0038787623232132175 0.005301031555068506
100595272 -0.0039226969967463485 0.005351129753737463
100625034 -0.003965211692109354 0.005386224012905565
100654796 -0.00401954670062511 0.005421853137827671
100684558 -0.004074037424608478 0.005471051469204271
100714320 -0.004118562775374488 0.0055037080164212476
100744082 -0.00416798570363061 0.0055437893485328444
100773844 -0.004217684196565585 0.005591387330636557
100803606 -0.004276075668328969 0.005621308525690731
100833368 -0.004343148783798144 0.0056713118189466736
100863130 -0.0042893295537207035 0.005652635904257149
100892892 -0.004238319958543522 0.00565264265669419
100922654 -0.004190795570451418 0.00563425425410707
100952416 -0.004137909658452159 0.005616496195163851
100982178 -0.004086504026786788 0.005604272168787078
101011940 -0.004029383599011816 0.005587912027637615
101041702 -0.0039910478906070935 0.0055820066218647294
101071464 -0.003939330537104605 0.00556873206766217
101101226 -0.003886232017299835 0.005547975137396189
101130988 -0.0038819120614145925 0.0055429131843074035
101160750 -0.0038902906808151315 0.0055359585794381395
101190512 -0.0038908808008179937 0.005528121220801149
101220274 -0.0039011452307409875 0.005524588867990929
101250036 -0.0039038953927572452 0.005522072612335427
101279798 -0.003911521622329029 0.0055021191237945586
101309560 -0.003918122187061415 0.005501071668538522
101339322 -0.003921267882973742 0.005492061656036522
101369084 -0.003924561659959774 0.00548782318492575
101398846 -0.0039135954707264055 0.005502925959349497
101428608 -0.003849501744597492 0.005559057899184755
101458370 -0.003791791822486098 0.005620874369632135
101488132 -0.0037267932313920587 0.005666431865992485
101517894 -0.003660638193568502 0.005718130677213124
101547656 -0.003603850504764993 0.005774811171899892
101577418 -0.003533227719886662 0.005826326478442901
101607180 -0.0034706032561168804 0.005875244287024298
101636942 -0.003404600241185248 0.005930397990152116
101666704 -0.003337093083630233 0.005972942760446041
101696466 -0.0034334825306171516 0.005931272126376257
101726228 -0.0035279020577268405 0.005881033859588245
101755990 -0.0036133671041818326 0.0058356071821556235
101785752 -0.0037143398426440614 0.005780966292968549
101815514 -0.0038042140475005137 0.005724158957730813
101845276 -0.003895720512728216 0.005647398663577644
101875038 -0.00398073899000977 0.005590906358026014
101904800 -0.004067339801928788 0.0055188465329383445
101934562 -0.004148160218779856 0.00544855137492043
101964324 -0.004113948306310058 0.005463030806609474
101994086 -0.0040304440836036355 0.005505855213454959
102023848 -0.003940863261373266 0.005545354754232497
102053610 -0.00386742043821799 0.005584412609052155
102083372 -0.0037780039557864745 0.0056185895072822945
102113134 -0.003680828469507037 0.005655524580293879
102142896 -0.0036054957034622696 0.005692368066859584
102172658 -0.003514621160615301 0.005715279866177982
102202420 -0.003429331593407484 0.005741226952863823
102232182 -0.0034033950683707345 0.00577693797145004
102261944 -0.0034863822102549217 0.005797203065132634
102291706 -0.0035688259041940173 0.005830095600941159
102321468 -0.0036660077002385375 0.005856169616898045
102351230 -0.0037497270205616245 0.005881221242766956
102380992 -0.003850904487552129 0.005906016705890708
102410754 -0.0039539348694286325 0.005919934058310757
102440516 -0.004052695181719551 0.00594444916728527
102470278 -0.004152116596428878 0.005962801312888953
102500040 -0.004257173760514286 0.005979624210066617
102529802 -0.004195948149785649 0.005993492581041124
102559564 -0.004144331323453722 0.005997512268514439
102589326 -0.0041004050030953405 0.006017849222522212
102619088 -0.004047141052985969 0.006027837872460612
102648850 -0.003992105584077664 0.006040760927817687
102678612 -0.0039317116979576865 0.006058639296200629
102708374 -0.0038829631743742183 0.006065204501341202
102738136 -0.0038293003439473635 0.006073581888921028
102767898 -0.0037763532996420326 0.006085622613665595
102797660 -0.0037498581997779607 0.006066696193091915
102827422 -0.003735506763204652 0.006039153955136343
102857184 -0.0037298366926993686 0.006005035055786561
102886946 -0.0037167129522468873 0.0059841038760896775
102916708 -0.0037161169224890615 0.00594618045343516
102946470 -0.0037044635559742847 0.005925713198550777
102976232 -0.0036874717152951403 0.005885144060877542
103005994 -0.0036828435110693894 0.005864463529207433
103035756 -0.0036759855214909946 0.005834113602473171
103065518 -0.003663310927515744 0.005820037501507447
103095280 -0.003669109456227587 0.005845187192629593
103125042 -0.003666821180730801 0.005869821386900406
103154804 -0.003671539679391974 0.005901076486793735
103184566 -0.003676954746247118 0.005919048555675252
103214328 -0.0036768617289737403 0.005943927800264129
103244090 -0.003693669321268991 0.005967816601609422
103273852 -0.0036878914145533036 0.006001074379171091
103303614 -0.0036808626275344064 0.006026050144660437
103333376 -0.0036925289309581114 0.006049969493777605
103363138 -0.0036080566515350565 0.006040879404965091
103392900 -0.0035174280546631563 0.006038165916456123
103422662 -0.003435605171225728 0.00602610995588544
103452424 -0.003350212844253746 0.006012645476547657
103482186 -0.0032704815933890614 0.006008023751645007
103511948 -0.003189522971262247 0.005984732985281599
103541710 -0.0031112752806678806 0.005977211011823627
103571472 -0.003043226898252839 0.005960664789130371
103601234 -0.002956480831888061 0.005944378622468116
103630996 -0.0029693741440941835 0.005935000761988293
103660758 -0.003016346829378503 0.005929100459768569
103690520 -0.003056501408744332 0.005924590332931952
103720282 -0.0031054048690908696 0.005915349010897745
103750044 -0.003155408931438253 0.005908636745309737
103779806 -0.0032024806818424494 0.005903535129051146
103809568 -0.003248867872613053 0.00589670285467928
103839330 -0.00330214749707276 0.005879735987099723
103869092 -0.0033544272273390288 0.005879558792316884
103898854 -0.003392454362417742 0.0058753820023310505
103928616 -0.0034350275246176104 0.005892041845617155
103958378 -0.0034722952774760858 0.005911592853945957
103988140 -0.003519176350731457 0.0059334440375289925
104017902 -0.0035626019027240104 0.005957025341416007
104047664 -0.0035964468718832406 0.005979666943176481
104077426 -0.0036345867134729734 0.006004854291728165
104107188 -0.0036814039302207687 0.006023530199926539
104136950 -0.0037355400029202546 0.006042580036699572
104166712 -0.0037672654742937654 0.006065255145595077
104196474 -0.0037618051258461473 0.00611156841559627
104226236 -0.0037534051020905153 0.006149300804184093
104255998 -0.0037398703593469044 0.006193222819018207
104285760 -0.003727917708613354 0.006236701475930116
104315522 -0.0037108108227372474 0.006278847638524587
104345284 -0.0037027125938098714 0.006321495286324053
104375046 -0.0036925818143725077 0.006363251593921336
104404808 -0.0036661231907693477 0.006406268339845417
104434570 -0.003662680305677425 0.006453821287299719
104464332 -0.003654067027149465 0.006425517837141971
104494094 -0.003648454007174181 0.006369690770398142
104523856 -0.0036397934852126705 0.00631042252476708
104553618 -0.0036495624270668505 0.006263716682111995
104583380 -0.003629775398837762 0.006197859032056183
104613142 -0.0036238594607821205 0.006146931614491609
104642904 -0.003618907721985954 0.006087003687886781
104672666 -0.003616947852048798 0.006038773018016329
104702428 -0.0036022906500296757 0.005978483930457141
104732190 -0.0035991926068823896 0.005974873914495036
104761952 -0.0035789282254636377 0.006041800861988205
104791714 -0.0035644359178828673 0.006107030074970263
104821476 -0.0035343616248571423 0.006174290793636696
104851238 -0.003514898011605491 0.0062471519410463115
104881000 -0.0034940674796985335 0.006314001005866646
104910762 -0.0034745059391719352 0.006392664657846033
104940524 -0.003443271258988696 0.006464290742039595
104970286 -0.0034193664129677573 0.006537089762393181
105000048 -0.0033748926150198705 0.006610095543433897
