# HZ S RI R 50
90000000 0.00012126761962351664 0.00494407906393099
90029762 0.00015888744804584958 0.00497232791357812
90059524 -4.421710238957743e-05 0.004975959915517938
90089286 9.173703377456422e-05 0.005008358777380621
90119048 -6.578622933574768e-05 0.005017461758771503
90148810 7.339683397970544e-05 0.005052134899257253
90178572 6.179809026874112e-05 0.005080279341479372
90208334 0.00010027392893704799 0.005098150295536506
90238096 -0.00010551121333960828 0.005102829039143224
90267858 3.12382847895649e-05 0.005141340300201802
90297620 4.506750940926057e-05 0.0051104456934746734
90327382 0.00012020624029663114 0.00506488613896397
90357144 9.669569471516569e-05 0.005004784249127695
90386906 0.0001729714506280573 0.004951693857190605
90416668 1.480203038827584e-05 0.004888647837961014
90446430 0.00018330163471050055 0.004842002712869148
90476192 0.00024671273753619765 0.00479832232378433
90505954 0.00027899430292916696 0.004747525634890495
90535716 0.0002547993618539929 0.004695245360020268
90565478 0.00032851358124973265 0.004660604942259649
90595240 0.00033182251722661723 0.004653936840496061
90625002 0.0003760126058409318 0.004649698851406734
90654764 0.00046553000381685116 0.004645529768785236
90684526 0.0005069467801362041 0.004635107490794065
90714288 0.000513388368571632 0.004632207160391796
90744050 0.000564845419656063 0.004623569310870221
90773812 0.0006520644232006578 0.004617699052693744
90803574 0.0006553942362354442 0.004598102059289238
90833336 0.0007422990754223436 0.0045940984309126385
90863098 0.0007643960251768433 0.00455412084833212
90892860 0.0007575988000575322 0.004514181755614713
90922622 0.0008271341803018722 0.004475724283473546
90952384 0.0008528400566683268 0.0044360032236439905
90982146 0.0008367286527558692 0.004396690214148848
91011908 0.0009008221017583883 0.004359683622136286
91041670 0.000890606503383806 0.004313474719470635
91071432 0.0009186192703554385 0.004274988387086697
91101194 0.0008332968846860641 0.0042290646567429546
91130956 0.0009866186437427291 0.00422346424934092
91160718 0.0009424000769781167 0.004239219405734401
91190480 0.0009461421198493107 0.004246872223924263
91220242 0.0008313885083553905 0.004257395536423245
91250004 0.0009353652779619668 0.004267599728949051
91279766 0.0008260311484596685 0.004275440966760704
91309528 0.0009645928050610114 0.004282786242476008
91339290 0.0009225272420147694 0.004290243380918453
91369052 0.0009542262377067199 0.00429758532982742
91398814 0.0008115645601615768 0.004283705708065952
91428576 0.0009322575745571964 0.004242202765232376
91458338 0.0009852813043065237 0.004203550418211733
91488100 0.0009564210503313549 0.004160487584329116
91517862 0.0009699267882707687 0.004113992087037563
91547624 0.0010183539608896953 0.004070272586879138
91577386 0.0010325060247178884 0.004026734576170511
91607148 0.0010088127643361126 0.003978633001035555
91636910 0.0010239626484549365 0.0039361909613347176
91666672 0.0010702933883973468 0.003888207953544512
91696434 0.0011085909942878745 0.0038482533239657594
91726196 0.0012132528747829678 0.003815192406078286
91755958 0.0012837066536332006 0.003763464657980067
91785720 0.0013241472453383164 0.0037255958241784776
91815482 0.0014155302249184713 0.0036762541494687138
91845244 0.0014913873134275936 0.0036223865583184054
91875006 0.0015248565909557587 0.00357250172336363
91904768 0.001506229623294424 0.003522960404752958
91934530 0.0016588707518418726 0.00345620822052223
91964292 0.0016891534837136044 0.0034234283072982026
91994054 0.0017340614751559236 0.003387963215157144
92023816 0.001644892379335112 0.0033738452906551322
92053578 0.0017440282694861256 0.00333678299604603
92083340 0.0017603898117380802 0.0033025155780814952
92113102 0.0018052459745370516 0.0032661989417885266
92142864 0.0017959427104793314 0.003238654241075938
92172626 0.0018380117212150814 0.0031918346503075536
92202388 0.001759537124351896 0.0031852026247999226
92232150 0.0018382329997167798 0.003118929108314041
92261912 0.0017498572502908539 0.0030593992374357247
92291674 0.001825078837343252 0.002963797319973745
92321436 0.00177598157055906 0.0028870517638029027
92351198 0.001773537695684854 0.0028144804212119406
92380960 0.0017385734460278034 0.0027386732286896103
92410722 0.001718282590588109 0.002665267434770002
92440484 0.001718730089847423 0.002581212335056193
92470246 0.0016973861753022306 0.002502383128785917
92500008 0.0016639864341961516 0.002430761936892097
92529770 0.001672198173457411 0.0023812930618113187
92559532 0.0016930221245396212 0.0023207238287845816
92589294 0.0016919598725475577 0.0022823573436026295
92619056 0.0017197812324325893 0.0022171954498214083
92648818 0.0017205780361313123 0.002162535315178703
92678580 0.0017093948651209017 0.0021127201110956555
92708342 0.0017349550359007134 0.002042142293531993
92738104 0.0017332851582064338 0.0019785662368727317
92767866 0.0017212371444967935 0.0019210625554901429
92797628 0.0017300886556498463 0.0018389718871501752
92827390 0.001727435857963757 0.0017508640280701258
92857152 0.0017291960980785265 0.0016721161884913805
92886914 0.0017009922437473228 0.0015843865991027612
92916676 0.0017431628884970528 0.0014731029176357274
92946438 0.0017224667818895578 0.0013919437667747774
92976200 0.0017115400992183548 0.0012842355897986458
93005962 0.001682799764825635 0.0011952178252272376
93035724 0.0016887963396168138 0.0010892790759937118
93065486 0.0016516718132919012 0.0009959704360215128
93095248 0.0016340964341369664 0.0008635975132293583
93125010 0.0016152926916689772 0.000745125741509258
93154772 0.0015842828695316173 0.0006110376059576211
93184534 0.0015336474822829147 0.0005296080703146648
93214296 0.0015064660679496827 0.0003918181650411674
93244058 0.0014434106632840785 0.00030380436175276844
93273820 0.0013730496624495758 0.00017629031126395396
93303582 0.001327565925222308 6.50534376498698e-05
93333344 0.0012431021383555365 -6.53893126572685e-05
93363106 0.0011662265245642829 -0.00012392120755826065
93392868 0.0010918435659510093 -0.0002116099924075886
93422630 0.0010106865069529898 -0.00028662586260130705
93452392 0.0009148789346989316 -0.00037380439614169853
93482154 0.0008341433544380798 -0.00044937014555626885
93511916 0.0007370341789954376 -0.0005236902613864926
93541678 0.0006422572293437208 -0.0005940338378684474
93571440 0.0005675805843554095 -0.0006901229994343516
93601202 0.00044705792074423747 -0.0007601217881170907
93630964 0.00034391546312504616 -0.000842130583154347
93660726 0.00022156676765868553 -0.0009047713035246693
93690488 8.754760225345844e-05 -0.0009905993069902893
93720250 -2.1883921955577532e-05 -0.0010676556768863938
93750012 -0.00016930973416239348 -0.001114973177255609
93779774 -0.0003308911026036957 -0.0011644898497987324
93809536 -0.0004161906176500097 -0.001276774348326557
93839298 -0.0005959680272457447 -0.0012602115274536752
93869060 -0.0007644175589017954 -0.00129069316564315
93898822 -0.0009154980560901976 -0.0012833317517282053
93928584 -0.001072918590095128 -0.0013420196791470635
93958346 -0.0012077597888808668 -0.0013485816524829147
93988108 -0.0013065077761923694 -0.001450249247692237
94017870 -0.001482513216529783 -0.0014024865270903261
94047632 -0.0016159170566364893 -0.0014570033526251933
94077394 -0.0017830828855683858 -0.0013785028875321567
94107156 -0.0019429777925054005 -0.0013952821737579426
94136918 -0.0020758106510504327 -0.0013623873337524537
94166680 -0.002203503297299181 -0.00133818741916362
94196442 -0.002457399798116584 -0.001379255380553327
94226204 -0.0027103491970124787 -0.0015652836923784712
94255966 -0.0030289217067603095 -0.0015524246127491671
94285728 -0.0033531311599099174 -0.0016724392234807027
94315490 -0.0036974189746649044 -0.0017889758573242686
94345252 -0.004112428620402528 -0.001884488943696462
94375014 -0.004550464798545262 -0.002132295813623188
94404776 -0.0050608466167029464 -0.002288047939894434
94434538 -0.0056474194667423165 -0.0025803313713346683
94464300 -0.005678115390564626 -0.0024612741415518053
94494062 -0.005494727278850529 -0.0020665298598580555
94523824 -0.005368367836886077 -0.0017350046717743966
94553586 -0.005189963038385082 -0.0015419538507017703
94583348 -0.005047100075598739 -0.0012911191789343962
94613110 -0.0048526930804477005 -0.0011069928125813017
94642872 -0.00473570166086413 -0.0009176108790216064
94672634 -0.004588936624073395 -0.0006814115467052429
94702396 -0.004458563592737259 -0.0005485408180823982
94732158 -0.004415723779900871 -0.0004276898164655687
94761920 -0.004454717869422396 -0.0003245790253882817
94791682 -0.004512071778648119 -0.00030077114361955155
94821444 -0.004550533212674447 -0.00014679087077474216
94851206 -0.004591985217871034 -8.657603364346599e-05
94880968 -0.004589638411401966 8.67867418048442e-05
94910730 -0.0046305743692716655 0.0001914605856130769
94940492 -0.0046332611771858715 0.00027457034807001364
94970254 -0.004697489902344426 0.00031003122031681866
95000016 -0.004684142279735185 0.0004526259748773241
95029778 -0.004779703001718683 0.00048073074742724695
95059540 -0.004854815483819651 0.0005728586186884139
95089302 -0.004936247493728164 0.0006504939443881814
95119064 -0.00497119589573375 0.0007230110737225541
95148826 -0.005089648547988148 0.0007274903719627538
95178588 -0.005122426347764079 0.0008539639611715142
95208350 -0.0051853981349115836 0.0009174057332530756
95238112 -0.005254443939925494 0.0009743722314984504
95267874 -0.005310437615788137 0.0010366625566815186
95297636 -0.005344442749734385 0.001115680482318434
95327398 -0.005376046207548732 0.0011964537544557174
95357160 -0.005412094156954099 0.001260102031843191
95386922 -0.00542713515640799 0.0013475680278689508
95416684 -0.005446881137865618 0.0014313121468507838
95446446 -0.005478524253194766 0.0014943628758571363
95476208 -0.0054902732509263035 0.0015862659517981682
95505970 -0.005523789632701519 0.0016456703047163042
95535732 -0.0055395647968231616 0.0017273427360046218
95565494 -0.005548714316722656 0.0018064263554334154
95595256 -0.005551967281705036 0.0019016022105154836
95625018 -0.0055262086295974145 0.0019976508003802015
95654780 -0.005527755131786622 0.0020937436800763315
95684542 -0.00552440345001593 0.002177973449759659
95714304 -0.005536149086156736 0.002282689960393154
95744066 -0.005522610357303706 0.002373193908145071
95773828 -0.00553414130655866 0.0024500812579507317
95803590 -0.00550135781971407 0.0025582624281166714
95833352 -0.005513962866645842 0.0026254614323897602
95863114 -0.005460652244114123 0.002693814768010778
95892876 -0.005442254001193157 0.0027323785014147133
95922638 -0.005379702949986467 0.0027809893349708577
95952400 -0.005324658622690936 0.0028209338105799364
95982162 -0.0052835261748947464 0.0028748859171228956
96011924 -0.0060329956134005215 0.002320104473550961
96041686 -0.005105875650139964 0.0029884464026889808
96071448 -0.005041657002282029 0.0030274656529067343
96101210 -0.005010102942825244 0.00304055352715834
96130972 -0.005850411306262904 0.0025416623395002756
96160734 -0.00501226225361846 0.003134378869554527
96190496 -0.005002660249111068 0.003200128483405556
96220258 -0.0050159177983377 0.0032348649358085323
96250020 -0.0050285514834458355 0.003282163128006741
96279782 -0.005019534416196266 0.0033240263607988577
96309544 -0.005247472124060044 0.003327084987325558
96339306 -0.0048507849675633605 0.0034627206064469407
96369068 -0.005061570954861745 0.0034522621000080953
96398830 -0.005052812307053147 0.0035099879485033653
96428592 -0.005059914064050893 0.003582031977749558
96458354 -0.005064571233259078 0.0036291016002769055
96488116 -0.004258397352781564 0.004053549831362065
96517878 -0.005036601590357219 0.003773300802751228
96547640 -0.0050254766357157934 0.003836480242344775
96577402 -0.005024826057924613 0.0039056653490492236
96607164 -0.0050169979453642604 0.003970273161977392
96636926 -0.004204865988661262 0.004346783962256716
96666688 -0.005007828599075126 0.004092112548940853
96696450 -0.004968299244344143 0.004069222038539113
96726212 -0.004936832679261664 0.004043133081211672
96755974 -0.00575710260888998 0.003663510550364881
96785736 -0.004845832157330805 0.004018261808018588
96815498 -0.0056687827160734105 0.0036356570643098353
96845260 -0.004771595756169616 0.003986519661409257
96875022 -0.004733275758713005 0.003966746666436983
96904784 -0.004719492980284082 0.003944833283575649
96934546 -0.004619698991025999 0.003952072723199278
96964308 -0.00466425596256912 0.003917209996527469
96994070 -0.004677400085393333 0.003913450819490132
97023832 -0.003971955702633309 0.004176698192878953
97053594 -0.0047162121693172816 0.003896945131901661
97083356 -0.004752987349471091 0.0038879779636886405
97113118 -0.005538161699664938 0.0035412112283227113
97142880 -0.004767694886392851 0.0038777565307135573
97172642 -0.0040714177617608965 0.004136501716990888
97202404 -0.004814142912551132 0.0038428631247596212
97232166 -0.004806515247849172 0.0038478061303876382
97261928 -0.004803383535539915 0.003886828197336734
97291690 -0.004774234815105853 0.003938534046471816
97321452 -0.004765023034646189 0.003978257717583512
97351214 -0.0047517612237262365 0.003999767543615795
97380976 -0.004746978089514794 0.004049278224784358
97410738 -0.004702283702907571 0.004098744416564638
97440500 -0.004686143031388465 0.0041367245149329405
97470262 -0.003955907000023452 0.004414224371482196
97500024 -0.0046552347382316376 0.004211055115690838
97529786 -0.004665377111944595 0.00423645399922602
97559548 -0.003924310367135605 0.004520306314457775
97589310 -0.004633620914312979 0.0043163045740418115
97619072 -0.0045568784415796395 0.0043962180611647915
97648834 -0.004656993694335668 0.004391210668288569
97678596 -0.004624827708020302 0.004445555769848581
97708358 -0.003906873328173701 0.004692446963647416
97738120 -0.004619443602137964 0.004519131130428681
97767882 -0.004616387238245781 0.004557030335836181
97797644 -0.005328241552513204 0.004345060976756917
97827406 -0.004524938232848307 0.004604046970222609
97857168 -0.0044208443366912055 0.004633504349552573
97886930 -0.004350990926501065 0.004662087954457412
97916692 -0.00499746978363606 0.004462128953555892
97946454 -0.004209704716686108 0.004708838615388199
97976216 -0.004836363300413601 0.004522912630449956
98005978 -0.0034233018814780964 0.004913556327129589
98035740 -0.0040216464252362406 0.004751387593927455
98065502 -0.004019147694545637 0.004766605072247212
98095264 -0.004088266467647561 0.004779673145830837
98125026 -0.004125459129192887 0.004809903296491258
98154788 -0.003527743312353266 0.00500284404046874
98184550 -0.004269756125553761 0.00484681289418978
98214312 -0.004339221220942128 0.004866040294233033
98244074 -0.003714006107164848 0.005053888251168794
98273836 -0.0045211966113030905 0.004883503907565148
98303598 -0.004563917502402885 0.004907634782589288
98333360 -0.00464461028113691 0.004914677906277233
98363122 -0.004666242945615807 0.004876444918503442
98392884 -0.004609517138634685 0.004866266325554307
98422646 -0.004646718522705816 0.004827469594642258
98452408 -0.004631215901591773 0.004811768570838979
98482170 -0.004573208052228509 0.0047987632966976
98511932 -0.004609213464142987 0.004759431072283389
98541694 -0.0038687184666924166 0.004938517146072873
98571456 -0.004537223557844144 0.004730405788877555
98601218 -0.005229559107383005 0.004490267264786749
98630980 -0.004503331685913756 0.004701553395421181
98660742 -0.00446096398250524 0.004731930181483727
98690504 -0.0037222001769690715 0.004957019982815172
98720266 -0.005062811937184662 0.004633643569598884
98750028 -0.004315977426615235 0.004880917794165008
98779790 -0.004261122719254673 0.004918830912315535
98809552 -0.004272814800380092 0.0049232569378774285
98839314 -0.004173918048565772 0.004977763918037943
98869076 -0.00416987553878081 0.005003724381317697
98898838 -0.004781798811113443 0.004893080925445163
98928600 -0.004112970226715431 0.005060292381804094
98958362 -0.004793143592607476 0.004928256830480229
98988124 -0.004196511519455261 0.005088691385107379
99017886 -0.004158132547572824 0.005116073221382569
99047648 -0.004225687033970928 0.005115758059069623
99077410 -0.004189899969916306 0.00514863184878438
99107172 -0.004209557214438431 0.005167831833149747
99136934 -0.004271316544261054 0.0051647778881411715
99166696 -0.004289370784386408 0.005176570752005455
99196458 -0.00424659859507983 0.005176289554440521
99226220 -0.00426078446019493 0.005161705325713396
99255982 -0.004061730459264521 0.005073642425718203
99285744 -0.004096008836684503 0.0050887717644008835
99315506 -0.0042366864972537 0.005077850182469225
99345268 -0.004337741259969933 0.0050443330664503416
99375030 -0.004286739318543616 0.005038798584837019
99404792 -0.004344730805550063 0.005000738866724365
99434554 -0.004528069438206421 0.004989975176136054
99464316 -0.004253035831456373 0.0050316093081422585
99494078 -0.004233420997327409 0.005062678963610445
99523840 -0.004098136186056848 0.00513470322632899
99553602 -0.004014543114936568 0.005186745802384126
99583364 -0.004543639780733871 0.005104323301952243
99613126 -0.0032327906224243396 0.005397618914655965
99642888 -0.0037798177736687102 0.005324519767461399
99672650 -0.003696840090988695 0.005373382209813664
99702412 -0.0042114418086706094 0.00529787961295376
99732174 -0.0035858991227163558 0.00542383859065162
99761936 -0.0034632956749330998 0.005425372706009533
99791698 -0.0037256888979297605 0.005365400469615609
99821460 -0.003705629698900616 0.005352650964318353
99851222 -0.003804226450269481 0.005312147977167533
99880984 -0.004389566132321897 0.005173200915332362
99910746 -0.0038356070689446325 0.00526071096215498
99940508 -0.004477650002326327 0.005106859336419606
99970270 -0.0039167034779004324 0.005203701584083936
100000032 -0.003960943102650916 0.005177727357538357
100029794 -0.003944083418543956 0.005172898765033494
100059556 -0.003917888249792223 0.005192197396274884
100089318 -0.003909619829753734 0.005194253620379175
100119080 -0.0038737635322689166 0.005206565486901049
100148842 -0.0038537391810973052 0.0052203989990946605
100178604 -0.0038482930702717338 0.005220852310058947
100208366 -0.0038278777997087137 0.0052302262877401634
100238128 -0.0038219338130711824 0.005236009628266468
100267890 -0.0037984820297642177 0.005246428683128562
100297652 -0.00379518640086958 0.005252166203255357
100327414 -0.0037993091444825542 0.005255769482947338
100357176 -0.0038066292899415106 0.005257322982135324
100386938 -0.0038120165235258786 0.005264041881761645
100416700 -0.003812838054028963 0.005263977345939669
100446462 -0.0038166212746839384 0.005265779050198193
100476224 -0.003821541733660585 0.005284922055363602
100505986 -0.003824366062811865 0.005273644002422132
100535748 -0.0038267881950795114 0.005281075747836218
100565510 -0.003845922312427116 0.005287934612602473
100595272 -0.0038895344302380857 0.0053289726170639585
100625034 -0.00393964489154991 0.0053764282271634555
100654796 -0.003995080258235999 0.005411760993679556
100684558 -0.004036827703403556 0.005454987985589579
100714320 -0.004091947419706876 0.005500631804490781
100744082 -0.0041439774086379794 0.005530395809833828
100773844 -0.004198286005593652 0.005576041321498846
100803606 -0.0042516803293233965 0.005611509167956312
100833368 -0.0043086185119368065 0.0056476701028966075
100863130 -0.004253427086494175 0.005643865680018625
100892892 -0.004205699851915811 0.00562545524959694
100922654 -0.0041482710270935785 0.005618321505275905
100952416 -0.004098852709512537 0.005595562751997462
100982178 -0.004055043711902146 0.005590920671983121
101011940 -0.004013996137575804 0.005573389363055149
101041702 -0.0039635040180807015 0.005560981442785784
101071464 -0.003918454735510816 0.005544705440115753
101101226 -0.0038686073716093766 0.005528316913881346
101130988 -0.0038624979295227924 0.0055220851514545645
101160750 -0.00386830052612037 0.005515284395682386
101190512 -0.0038724046194063637 0.005516738025992942
101220274 -0.0038796219527638407 0.005505672569757234
101250036 -0.003877492608852001 0.005507470169479405
101279798 -0.0038898214312576987 0.00549187947080747
101309560 -0.003893721723578711 0.005487089588393439
101339322 -0.003901629071078024 0.005477384302994993
101369084 -0.0039059467067222007 0.005467585833453409
101398846 -0.0038891918601946037 0.005484382041094925
101428608 -0.0038308049622382124 0.005542442513250781
101458370 -0.0037716419739751185 0.005598838742959285
101488132 -0.0037126380327916464 0.005653716139535276
101517894 -0.003646523339257281 0.005703086956517982
101547656 -0.003583014513178201 0.005761369752069895
101577418 -0.003518418846959394 0.005810747427088527
101607180 -0.003454944011087826 0.005858127652123104
101636942 -0.0033908562339636642 0.005910064725961327
101666704 -0.003318445537547107 0.00595141245367819
101696466 -0.0034101017850658878 0.005907778059618309
101726228 -0.0035040185516197076 0.005863458543230898
101755990 -0.0036086312886289694 0.0058125064722002575
101785752 -0.003687923245221459 0.005760306825148966
101815514 -0.003791844812162468 0.005693969053370666
101845276 -0.0038686317337462894 0.0056372432391729125
101875038 -0.00396882123706185 0.00557342074728699
101904800 -0.0040547351062328275 0.00549976941580488
101934562 -0.0041308172864613175 0.0054395880056864535
101964324 -0.004107257522386425 0.0054472047898890515
101994086 -0.004019308310757852 0.005485051318823268
102023848 -0.003931237448304926 0.005528610839993321
102053610 -0.003847342287216486 0.005564396677071621
102083372 -0.0037685395997913503 0.005597832527930278
102113134 -0.0036776661037929573 0.005646748474479741
102142896 -0.003590249283837169 0.005669251458522864
102172658 -0.003504390299631385 0.005702554340061506
102202420 -0.0034255494604033612 0.005725323101252065
102232182 -0.003392286763049601 0.005756652418004231
102261944 -0.003478404073177231 0.005780233873922202
102291706 -0.003567694809436313 0.005814775651448817
102321468 -0.0036559626032819327 0.005835279677634055
102351230 -0.0037473723543819054 0.005860516707869771
102380992 -0.0038398174129670214 0.005889654549093816
102410754 -0.003941205483660406 0.005910044772237484
102440516 -0.00403819971996734 0.005923619604962596
102470278 -0.004139668807651522 0.0059480888607003745
102500040 -0.0042401494762678744 0.005959554485772984
102529802 -0.004200586218124216 0.0059735568852280355
102559564 -0.004142844725246899 0.005988325528243157
102589326 -0.004087162683706652 0.006001314579930991
102619088 -0.004033315926566317 0.006016916349314831
102648850 -0.003975581826414059 0.006026598663972877
102678612 -0.003927282542023459 0.006038840374812871
102708374 -0.0038713482221146606 0.0060520998311975474
102738136 -0.0038152855608514728 0.006060970633655034
102767898 -0.003767462066670227 0.006067784284999046
102797660 -0.003736333108887888 0.006057793028000046
102827422 -0.0037308782453242934 0.0060248123237575755
102857184 -0.0037215737381949545 0.005996508764358824
102886946 -0.003715978043301753 0.005967335695748294
102916708 -0.003700357513886828 0.005935911557865059
102946470 -0.0036984920901833394 0.005899617038742668
102976232 -0.003682968815544236 0.005873878709243832
103005994 -0.003669504689068752 0.005843120654430767
103035756 -0.003671761405234317 0.00581564977759832
103065518 -0.0036599829438433303 0.005806626229106402
103095280 -0.0036641615104728202 0.005829103111442291
103125042 -0.0036601285433211245 0.005857643546957409
103154804 -0.0036651245341973084 0.005883207620802142
103184566 -0.0036712971369693708 0.005907943811698322
103214328 -0.0036744937570778093 0.005930900611090146
103244090 -0.0036790900998726066 0.005961538540286335
103273852 -0.0036830996290819996 0.005982721164316304
103303614 -0.003680305335872734 0.006016256234166896
103333376 -0.0036826986208368826 0.0060317698220167856
103363138 -0.0036010294305124963 0.006032228965098846
103392900 -0.0035174787675040383 0.0060202441451073395
103422662 -0.0034310710653101648 0.006011939766715317
103452424 -0.0033490440810234096 0.006000521518874883
103482186 -0.003262240141287883 0.0059914913592755996
103511948 -0.0031863145743293193 0.0059750621832197716
103541710 -0.003107340819510681 0.005961938987730642
103571472 -0.0030262695256989213 0.005945861065233713
103601234 -0.0029509319660984273 0.005928587297323242
103630996 -0.0029642635831860294 0.005923633015692049
103660758 -0.0030083487857101364 0.00592176947272763
103690520 -0.0030541688159966027 0.005913927120637777
103720282 -0.003105121137540076 0.005907465020159056
103750044 -0.003152162529471927 0.005901065879629464
103779806 -0.003194097492657916 0.005890341669100793
103809568 -0.0032507735578578183 0.005881128481419916
103839330 -0.003298369968573506 0.005866114530160664
103869092 -0.0033511829917371085 0.005858453924802245
103898854 -0.0033916823640515016 0.0058597440407881845
103928616 -0.00343027511308684 0.00588553985978348
103958378 -0.00347237376169241 0.005900543497656928
103988140 -0.0035043222987858965 0.00592496273403405
104017902 -0.00354984357307812 0.005950159863629953
104047664 -0.003593961056088677 0.005968615725448997
104077426 -0.003634124500012004 0.005995200756230177
104107188 -0.003678519956814484 0.0060048853159596445
104136950 -0.0037300063341493632 0.0060355014580668115
104166712 -0.0037750158966031473 0.006058087006196366
104196474 -0.003763290016079136 0.006096753822440818
104226236 -0.0037514400146391245 0.006136929171533486
104255998 -0.00373835655928882 0.0061803224604195595
104285760 -0.003726707981960826 0.006218524711184889
104315522 -0.003712963073009996 0.006267354479114742
104345284 -0.003697267092817688 0.006308079568461249
104375046 -0.0036891965099261617 0.006349518476015767
104404808 -0.0036755961855419943 0.006405746066237516
104434570 -0.0036578987651003287 0.006440223540577731
104464332 -0.0036531198641362693 0.00641507648237572
104494094 -0.0036449550597323407 0.006358460624583281
104523856 -0.0036458504879916306 0.006301205215601535
104553618 -0.0036439391187816765 0.0062503692453140984
104583380 -0.0036355022250646406 0.006189461213364085
104613142 -0.0036330159932085526 0.006131521881494438
104642904 -0.003616840936679733 0.006073175358463595
104672666 -0.003617396665054222 0.006022198830545801
104702428 -0.0036047378779255888 0.005977169473490465
104732190 -0.003594184447698539 0.005960589522718439
104761952 -0.0035746267522161444 0.006022440938252281
104791714 -0.003558332171593811 0.00609793941752759
104821476 -0.0035327610406796213 0.006167993854898022
104851238 -0.003524261591956849 0.006236453112887195
104881000 -0.003499284119434932 0.00630826909726641
104910762 -0.003475779637296196 0.006377703827607594
104940524 -0.0034510387886555766 0.006454311998691846
104970286 -0.003425681002691402 0.0065313828056200824
105000048 -0.003377580015955442 0.00660086536745361
