# HZ S RI R 50
90000000 0.00015856837060197783 0.004914590517998323
90029762 0.0001993118222716986 0.004936198418800077
90059524 -7.2296997131122434e-06 0.004947605989139042
90089286 0.00013232522901497124 0.004977848927659492
90119048 -2.3437154294625832e-05 0.004985691708801783
90148810 0.00010919657946983251 0.005024562137964136
90178572 0.00010351092002995428 0.005045002160108128
90208334 0.0001418205623486035 0.00506316102195383
90238096 -6.440445700973319e-05 0.005065634588455737
90267858 7.243277661912586e-05 0.005104337714572916
90297620 8.71570956904024e-05 0.00507394024119218
90327382 0.0001612461238118242 0.005022389838603877
90357144 0.0001412337718049921 0.0049610735538544205
90386906 0.00021815708509145032 0.004915856768986766
90416668 6.005261512904053e-05 0.004846117862833599
90446430 0.0002180361071747494 0.004806891495508229
90476192 0.00029668794988064334 0.004758835817134468
90505954 0.00031820002279128403 0.004702946450078528
90535716 0.0003008979056366859 0.004653215440869262
90565478 0.00037376915236475095 0.004619732468049217
90595240 0.00037685814369443026 0.004607675500330019
90625002 0.00041982845216217626 0.004600154656720797
90654764 0.0005105200432894523 0.004598779811839473
90684526 0.0005540915866594285 0.0045913851933020505
90714288 0.000559056413208792 0.004577857288328082
90744050 0.0006068257300062168 0.0045722145939449356
90773812 0.0006959592474602147 0.004559681349327412
90803574 0.0007007794801451797 0.004554140507242589
90833336 0.0007883727622538966 0.004534621212810176
90863098 0.0008146699013027622 0.00449431126996828
90892860 0.0008022925816038395 0.004456566111036307
90922622 0.0008732460394401053 0.0044131091313646745
90952384 0.0008953397209543283 0.004375212405408574
90982146 0.0008831636522435247 0.004332145883874482
91011908 0.0009504825114254356 0.004289619208651694
91041670 0.0009341834830282086 0.0042518456512794294
91071432 0.0009682327520859348 0.004210465939555349
91101194 0.0008813537276929844 0.004169565180902764
91130956 0.0010313045668591374 0.004154826656752348
91160718 0.0009940599132291104 0.00416884345776974
91190480 0.0009934463340716077 0.004177298736019318
91220242 0.0008876261022225597 0.004180937448050162
91250004 0.0009859203959598929 0.004188851936840992
91279766 0.0008792583389914367 0.004193544997827127
91309528 0.0010174618263013753 0.004198051164725893
91339290 0.0009746221164834837 0.004204917975035745
91369052 0.0010082612708419327 0.0042125728902665865
91398814 0.000874304847887276 0.004195676706279136
91428576 0.0009959674228022172 0.004151658239971895
91458338 0.0010304518869167496 0.004116103391243531
91488100 0.0010112443601117 0.004069061204664379
91517862 0.0010336463166763508 0.004019898899621783
91547624 0.0010731658701705442 0.00397280875915412
91577386 0.0010887648619485194 0.003929372188389986
91607148 0.0010759430348833174 0.003874211198425182
91636910 0.0010830022191388611 0.003827279709901483
91666672 0.0011221598340294724 0.0037835734793996044
91696434 0.0011701545152255168 0.0037433920738889986
91726196 0.0012737509332561513 0.003696812089214522
91755958 0.0013349538096580293 0.003652070964785079
91785720 0.0013792551105252376 0.0036052467203797844
91815482 0.0014681443274806028 0.003549288142266681
91845244 0.0015357319638052741 0.003494790102599591
91875006 0.0015734361867685662 0.0034336198334096184
91904768 0.001551870541214253 0.003390567077212092
91934530 0.001689477593707627 0.0033147464371202024
91964292 0.0017304554903551392 0.0032768539661418333
91994054 0.0017786950330270493 0.0032441185927998177
92023816 0.0016888734568750571 0.0032249502436124417
92053578 0.0017850117812834704 0.003179124797414297
92083340 0.0018039549723556686 0.00314489869122584
92113102 0.0018441250412763574 0.0031021358883453463
92142864 0.0018358373297987015 0.003069091854736299
92172626 0.0018818255240933052 0.0030143274425153644
92202388 0.0017953583598524527 0.0030026064251257685
92232150 0.0018777073139059376 0.0029202789010868376
92261912 0.0017854621001196069 0.0028700127561039172
92291674 0.0018534066560572616 0.0027578660784527715
92321436 0.001815545575482365 0.002682636627785119
92351198 0.001813107458911039 0.0025924826229917135
92380960 0.0017752578329914735 0.002517743198507196
92410722 0.0017534088234721402 0.0024357463097064045
92440484 0.0017478096583449056 0.0023455376859125147
92470246 0.0016870885192429624 0.0022884850150887985
92500008 0.001690628772470817 0.002194138149539898
92529770 0.00168689796818045 0.002138517572097321
92559532 0.0017126176708761212 0.0020649449489731145
92589294 0.0017005103231946645 0.0020061353346503452
92619056 0.0017243481511360923 0.00193687422726442
92648818 0.0017245299817102687 0.001872539037931757
92678580 0.0017033205830466918 0.001815909866195032
92708342 0.0017154051012667512 0.0017408274765230065
92738104 0.0017014079452746726 0.0016633093758249978
92767866 0.0016950698560478548 0.00159741422126569
92797628 0.0016993474585099962 0.0015015705636620416
92827390 0.0016769434434536414 0.0014160645429274578
92857152 0.0016697793562187677 0.0013312210439916214
92886914 0.0016390000437361168 0.00123648340730692
92916676 0.001641534616812441 0.001127053251654214
92946438 0.0016244926142295211 0.0010261568522529777
92976200 0.0015875821224837934 0.0009269478874059806
93005962 0.001572494378384599 0.0008096311798205716
93035724 0.0015437905493541598 0.0006822967604443442
93065486 0.0014968738825741268 0.0005902265646582417
93095248 0.001463012002134029 0.0004644230728793238
93125010 0.001412420863878151 0.00036325074939458504
93154772 0.0013541838586057457 0.00024262897680171405
93184534 0.0013017710146426254 0.00013523852872772012
93214296 0.0012090821656583377 2.45162435022983e-05
93244058 0.0011469343119170155 -5.673696118862458e-05
93273820 0.0010360113485915557 -0.00019175015896889734
93303582 0.0009660276681890518 -0.00027951878802170093
93333344 0.0008659159464612916 -0.000381315574848087
93363106 0.0007753251477786082 -0.0004495481721539337
93392868 0.0006740443080274698 -0.0005357466666201825
93422630 0.0005921666742058464 -0.0005783604658896855
93452392 0.00047982690272229853 -0.0006767499643118229
93482154 0.00038406985128214364 -0.0007452659960885986
93511916 0.00026969453891282947 -0.0008124207285080244
93541678 0.00016222760901765977 -0.0008719854886266723
93571440 8.306073928149821e-05 -0.0009619403773873823
93601202 -5.031671510648458e-05 -0.0010138487589176524
93630964 -0.00017548590333125823 -0.0010711744534437928
93660726 -0.00029761368200474083 -0.0011461115069470618
93690488 -0.0004692215189121178 -0.0011649989313741755
93720250 -0.0006112681877406794 -0.0012382989259995137
93750012 -0.0007574146817364417 -0.00126333960250541
93779774 -0.0009081223232939894 -0.0012774392840889976
93809536 -0.001027388185363825 -0.0013695026057723863
93839298 -0.0012109219213943857 -0.001311873933693166
93869060 -0.0013783644514935725 -0.0013128538102518093
93898822 -0.0015453182959147315 -0.0012918957350433818
93928584 -0.001656060373364129 -0.0013215873529974307
93958346 -0.001826714007779791 -0.0012606345430859198
93988108 -0.001912745947556064 -0.0013615174985953822
94017870 -0.0021000765231287575 -0.0012772812566731113
94047632 -0.0022163576563153423 -0.0013405846649567595
94077394 -0.0023884112325313817 -0.0012021254731885004
94107156 -0.002511436687838569 -0.0011998126363014232
94136918 -0.002648027901381262 -0.0011201290271049128
94166680 -0.002771864955946277 -0.0011071819237571951
94196442 -0.003031450856291042 -0.001160265454730497
94226204 -0.0033163969399778934 -0.0012967954391058614
94255966 -0.0036492553437374622 -0.0012300925209677075
94285728 -0.004001410304948897 -0.0013164816018574777
94315490 -0.004386162807261307 -0.0014127281007548197
94345252 -0.004829326131043779 -0.0014913949963095675
94375014 -0.005289605667443736 -0.0016465737494224908
94404776 -0.005818557786726591 -0.0017905428284995392
94434538 -0.006459197703221616 -0.0020384025934426526
94464300 -0.006457409836181236 -0.001943968102237855
94494062 -0.006204096364010586 -0.0015534911863816798
94523824 -0.0059474127593908774 -0.0012081869352577287
94553586 -0.005681649168048497 -0.0010008737153813854
94583348 -0.0054791304202415755 -0.0007519552015889715
94613110 -0.00527390242408981 -0.0005915252381213168
94642872 -0.0051021483517026504 -0.0004033085425970138
94672634 -0.004912556427953262 -0.00019645988668362993
94702396 -0.0047489083816265355 -6.409078167746129e-05
94732158 -0.004657789846849621 1.036718950641939e-05
94761920 -0.004684944396575272 0.0001277450340708233
94791682 -0.004735021714888496 0.0001531145438230564
94821444 -0.004713241717870697 0.00033010092076607043
94851206 -0.004773504155956244 0.0003411160714206184
94880968 -0.004746925033942332 0.0005322510472861945
94910730 -0.004763320113891297 0.0005952581105818568
94940492 -0.004733767203245464 0.0007056449172436447
94970254 -0.0047977898603862625 0.0007285241124828433
95000016 -0.004756878771434807 0.0008664916071634111
95029778 -0.004855236696031434 0.0008731864908695697
95059540 -0.004890031964201519 0.0009819584131949576
95089302 -0.004943272095997942 0.0010591695817413942
95119064 -0.0049971375395617985 0.0011303006466483066
95148826 -0.0050998454240996005 0.0011599158846951332
95178588 -0.005104635196171963 0.0012632414330303984
95208350 -0.00516784730883646 0.0013267373860867814
95238112 -0.005210893672982458 0.0014013237478432364
95267874 -0.005268221217467966 0.001448891088734468
95297636 -0.0052951537696128825 0.0015240518320789342
95327398 -0.005309880127347381 0.0015855299597039368
95357160 -0.005344961901543134 0.0016576139170848892
95386922 -0.005364648438832501 0.0017310238746253142
95416684 -0.00537537650707357 0.0018052438833076425
95446446 -0.005396590249924769 0.0018679245939329239
95476208 -0.005406642431683503 0.001929698627294503
95505970 -0.005426313609300821 0.0020039903288148584
95535732 -0.0054470881980674055 0.0020593365275125663
95565494 -0.005438395312981325 0.0021388852724895137
95595256 -0.005425899910546376 0.002239122596762365
95625018 -0.005435269932951737 0.0023091408725258353
95654780 -0.005426891048941707 0.0024026708349714314
95684542 -0.005409419379177711 0.002486532957513595
95714304 -0.005414555528484359 0.002579156406469327
95744066 -0.005389537842993152 0.002657674188300292
95773828 -0.00540226055973193 0.0027237078777225324
95803590 -0.005377346587711208 0.0028223118759180483
95833352 -0.005361248581903464 0.002894137681709344
95863114 -0.005308179849907411 0.0029373715741888963
95892876 -0.005256409046775078 0.002993240506171798
95922638 -0.005218979049019962 0.003024359228098468
95952400 -0.005166740928286533 0.0030550759952457764
95982162 -0.005122078626155037 0.003092914741868999
96011924 -0.005943623002773785 0.00257678162333099
96041686 -0.005013256136452104 0.0031538190972766
96071448 -0.004961001622638608 0.003192231345456286
96101210 -0.004914946653132656 0.0032268281057342574
96130972 -0.00576964328170404 0.002751171976121284
96160734 -0.004919607275652363 0.003301743065922262
96190496 -0.004925636789239635 0.003342340088353681
96220258 -0.004932682509959971 0.003397774343125026
96250020 -0.004931460897909609 0.003425444268276562
96279782 -0.0049413291496813215 0.003466972044700926
96309544 -0.004941641441505879 0.003514483132859477
96339306 -0.0049565080116609605 0.0035571298243291098
96369068 -0.004967352747241545 0.0036003087319438137
96398830 -0.004967966102750355 0.0036585270505912117
96428592 -0.004953411321765527 0.0037130978998837737
96458354 -0.004962373564695379 0.0037735143281816606
96488116 -0.004165968312451097 0.004161109141059986
96517878 -0.004930740092967423 0.003889328532265438
96547640 -0.004930492072772168 0.003969710938343737
96577402 -0.004926174802880456 0.004015088634836283
96607164 -0.004911935333410101 0.004080042770179702
96636926 -0.004108889824551217 0.004440008033206209
96666688 -0.004902677953382819 0.0042071895768256125
96696450 -0.004857698608286636 0.004186531238622976
96726212 -0.0048367905899061 0.0041681563998709715
96755974 -0.005646610605854378 0.0038043008507174284
96785736 -0.004739307009602797 0.004124687005025891
96815498 -0.005560134210881587 0.0037591299488868527
96845260 -0.004678435113808223 0.0040944693862252305
96875022 -0.004642662244565958 0.004064024364248214
96904784 -0.004621125215592752 0.00404274672186438
96934546 -0.004529290205491254 0.00404135369890505
96964308 -0.0045678267745961915 0.0040182716738744635
96994070 -0.004593840831130913 0.00400572432805396
97023832 -0.0038859649539404175 0.0042572013984419595
97053594 -0.004624830913894257 0.003990383355837978
97083356 -0.0046552137238957325 0.003967766079563508
97113118 -0.0054339079353091495 0.003648303513643283
97142880 -0.004672413486881419 0.003956720497833176
97172642 -0.003980224701887467 0.004204963200529853
97202404 -0.004729479611837863 0.003918081608158401
97232166 -0.004715694311549637 0.003932263041759855
97261928 -0.004712714182208072 0.003958101730223303
97291690 -0.004678593453405413 0.004011744348836279
97321452 -0.0046688611892612315 0.004042913411657106
97351214 -0.004671246690861796 0.004080655686486228
97380976 -0.0046443353343171845 0.004101807660326826
97410738 -0.004610399988653044 0.004161794888783209
97440500 -0.004584053740937723 0.004192843838487649
97470262 -0.00387415628021962 0.004458990348478006
97500024 -0.004559654272326108 0.004269207957501974
97529786 -0.004583030861230752 0.0042953563701179686
97559548 -0.003847673735711647 0.004561659479335826
97589310 -0.00455213411681075 0.004376382216246354
97619072 -0.0044643347166777505 0.004439736682493329
97648834 -0.004559085344104392 0.004444663338830032
97678596 -0.004530477549779699 0.004496335659230262
97708358 -0.003820679448890558 0.004740814080891767
97738120 -0.004530141727782454 0.004571143843324988
97767882 -0.0045253251614683805 0.004603692354504825
97797644 -0.005242662875263808 0.004406071100276244
97827406 -0.0044287983465740215 0.0046504231075006185
97857168 -0.004332592755215295 0.00468714407165675
97886930 -0.004263239996573766 0.004704743178344702
97916692 -0.00489567984089087 0.004513101490914759
97946454 -0.004134406633621357 0.00475015130974024
97976216 -0.004743714876764798 0.004560046506096246
98005978 -0.0033552463089359928 0.004938112721321735
98035740 -0.003936262580192709 0.00478991013017359
98065502 -0.003937121668698404 0.004799059237892342
98095264 -0.0040029118680320825 0.00482500275135542
98125026 -0.004034865125676187 0.0048465498679081155
98154788 -0.0034531948655912286 0.005027340257183816
98184550 -0.0041742519500772126 0.0048813209979428375
98214312 -0.004245558305130564 0.004894740742613011
98244074 -0.0036320373440174654 0.005084653269284161
98273836 -0.004438055116198923 0.004914058498602136
98303598 -0.004466938804084605 0.004931300598970754
98333360 -0.004550018980521581 0.0049489094570861585
98363122 -0.004578657122549108 0.004911294430107724
98392884 -0.004524086834449802 0.004891752818526206
98422646 -0.004551545531121889 0.004851117065042962
98452408 -0.004539811958095967 0.004829508016323496
98482170 -0.004491155703829302 0.004818394486314094
98511932 -0.004517997687580222 0.004782676421531429
98541694 -0.0037819448980257833 0.004957870250973226
98571456 -0.004451853387020926 0.004750832909261501
98601218 -0.005118918413528412 0.0045110518328184855
98630980 -0.004402096428677128 0.004748028984042205
98660742 -0.004361708118382748 0.004776223980128553
98690504 -0.0036429932597984906 0.004985057344682708
98720266 -0.004951331268785724 0.004673260145881795
98750028 -0.004225652827323374 0.004890627350863352
98779790 -0.004174965818312642 0.004929249536165553
98809552 -0.0041715010112285174 0.004948328654407917
98839314 -0.004085728703027476 0.004991041105460216
98869076 -0.0040790563027852025 0.00501438153058713
98898838 -0.004666265425049454 0.004910081335500156
98928600 -0.00401578435594486 0.00507228257888047
98958362 -0.004700051561976111 0.004937814753782928
98988124 -0.00409461210458619 0.005096859256381587
99017886 -0.004098063490859121 0.005132788132158568
99047648 -0.004166634965916707 0.005119572652068667
99077410 -0.004132659805973389 0.005142871999591229
99107172 -0.004140962967290529 0.0051609061936115355
99136934 -0.00422414974241948 0.005174786551224588
99166696 -0.004231766075839036 0.005194574375978263
99196458 -0.004191185688712315 0.005176782583703631
99226220 -0.004198195213403264 0.0051591443086157355
99255982 -0.004253934514204357 0.005126534866643434
99285744 -0.004207765545305332 0.00510667712185809
99315506 -0.004180231484052044 0.005083618771577821
99345268 -0.004186545234766547 0.0050628904445539245
99375030 -0.004230589832483925 0.005047757504844042
99404792 -0.0042909720250678025 0.005008912749474532
99434554 -0.004467737613737261 0.004999796108495815
99464316 -0.004193234010482037 0.005022368367188024
99494078 -0.004173467954946362 0.005065367002676902
99523840 -0.00404255685966403 0.0051325792612442345
99553602 -0.003960641394957812 0.005183245599209459
99583364 -0.004491842612300285 0.00509872730506966
99613126 -0.0031805098903819797 0.005384282283325969
99642888 -0.003739961352877039 0.005315816062149671
99672650 -0.003661590856755296 0.005357286102746371
99702412 -0.004151516218998544 0.005286384342764377
99732174 -0.003543232901267764 0.0054133223409931356
99761936 -0.0035054407812948143 0.005420661867376227
99791698 -0.0036872978664819873 0.005351733317476125
99821460 -0.00366653202684973 0.005340494018365419
99851222 -0.003763975919096402 0.005305142547286725
99880984 -0.00433727019237042 0.00517719464829601
99910746 -0.0037888956166432846 0.005258789122429046
99940508 -0.004410163880639128 0.0051173086774862495
99970270 -0.0038598886270424584 0.00519181649933632
100000032 -0.0038945553476471195 0.005179520516736097
100029794 -0.003882288085914491 0.005178159058566842
100059556 -0.003871607063280541 0.005177618797123958
100089318 -0.0038626663234959165 0.0051946074105205745
100119080 -0.0038501511593594857 0.005195736471863793
100148842 -0.0038319547566882826 0.0051975738700837
100178604 -0.0038177122277590248 0.005214202311778947
100208366 -0.0038009661444637815 0.005220147856956969
100238128 -0.0037879307354009737 0.005219154259885263
100267890 -0.0037714154139559686 0.005231537073810021
100297652 -0.0037733410971266925 0.005235633238080922
100327414 -0.0037757663008212987 0.00523539463223917
100357176 -0.0037745249116679686 0.005241486535993229
100386938 -0.0037798950761099943 0.005246771729499992
100416700 -0.003789407393107789 0.005253455986202275
100446462 -0.003784987545246983 0.005251491539965075
100476224 -0.0037980539624619222 0.005256154687556539
100505986 -0.0037986098521101534 0.005254022908465302
100535748 -0.003802994699867036 0.00526185901735784
100565510 -0.0038155953429550734 0.005273875610007419
100595272 -0.0038654968724948034 0.0053134694420185905
100625034 -0.0039064119021162995 0.00535457947016177
100654796 -0.003959015738573598 0.005398016713977425
100684558 -0.004010934920196787 0.005432877085593187
100714320 -0.004072040301677829 0.005476159037812352
100744082 -0.004117267306818348 0.005520625732230109
100773844 -0.004168982540403757 0.0055637237487374674
100803606 -0.0042229406511100085 0.00560063161809373
100833368 -0.004281772806243559 0.005633744032731982
100863130 -0.004234641696488163 0.0056221585519863485
100892892 -0.004184399797679855 0.005617256630187865
100922654 -0.004126019206829247 0.005604555413190101
100952416 -0.004089415651743538 0.0055894037092972405
100982178 -0.00404056629121383 0.005572306356277762
101011940 -0.003982394426854607 0.005566750175699334
101041702 -0.0039504211351821935 0.0055435302153951154
101071464 -0.0038950832634427716 0.005538512995213861
101101226 -0.0038428194710852046 0.0055161982473373285
101130988 -0.0038313897745606115 0.005513577814246026
101160750 -0.0038455253218890014 0.0055113550463512405
101190512 -0.0038487966485199697 0.005499557555741747
101220274 -0.003854469875778303 0.0054874086505059426
101250036 -0.0038635549337983025 0.005482469131363347
101279798 -0.0038661729742197714 0.005482400050049209
101309560 -0.003877444313758657 0.005473675517723395
101339322 -0.003884841694685507 0.005463835648884195
101369084 -0.0038909091838033954 0.005458583955137345
101398846 -0.00387274776967504 0.005477637694637652
101428608 -0.0038052967242450204 0.005532977376627347
101458370 -0.0037551898992299127 0.005585149163952469
101488132 -0.0036911829519243105 0.005636766442743515
101517894 -0.0036212292639875134 0.005691039880657473
101547656 -0.003562662730577709 0.0057462421981721735
101577418 -0.0035056997214022133 0.005793324785810885
101607180 -0.003438860160954141 0.005844118625806479
101636942 -0.0033769900904127223 0.005891915179824339
101666704 -0.0033010211414797462 0.0059382508910883775
101696466 -0.003398523769513552 0.005894605116663725
101726228 -0.0034929420153144773 0.00584855983522436
101755990 -0.0035853981907050833 0.00580024590749653
101785752 -0.003682152201393082 0.005742221381871069
101815514 -0.003775838644774413 0.005691243611550528
101845276 -0.0038633010822820115 0.005627989486802521
101875038 -0.003948291004690086 0.00555925574859606
101904800 -0.0040277561034185085 0.00549555519701441
101934562 -0.004112010440036745 0.005433827631705926
101964324 -0.004093248823164582 0.005424863510149901
101994086 -0.004000671600017771 0.005467194892201067
102023848 -0.003921158799377605 0.005515021306624445
102053610 -0.003830198847644508 0.005552195800700784
102083372 -0.003746415224716879 0.0055952525397655615
102113134 -0.003670199451332749 0.005624368931500007
102142896 -0.0035769003343716185 0.005656076518500873
102172658 -0.003486396910131515 0.0056812641519422835
102202420 -0.0034034307960867285 0.005712041669217689
102232182 -0.003377694735423804 0.005742668867735025
102261944 -0.00345755710321636 0.005767986964939348
102291706 -0.0035553632814378272 0.005796554432944435
102321468 -0.0036384225789060387 0.005826901826554433
102351230 -0.0037252760737146347 0.005856176077741191
102380992 -0.0038300744970415092 0.005876801621831904
102410754 -0.003925773212445315 0.005903350941352599
102440516 -0.004028579812778262 0.005919147076090946
102470278 -0.004126991491267346 0.00593142162061669
102500040 -0.004235399685405327 0.005948610903882468
102529802 -0.004183147772413328 0.0059620208486318455
102559564 -0.0041289674659312926 0.005977613342306911
102589326 -0.004074486158907775 0.005987461420499478
102619088 -0.004027465627441269 0.006006200458009568
102648850 -0.003968668765512545 0.006018276665275589
102678612 -0.003914102949328629 0.006031347258723699
102708374 -0.00385191057233425 0.006039168774848245
102738136 -0.0038160158494314647 0.006052874083837846
102767898 -0.0037552048258016734 0.0060572512985485015
102797660 -0.003731541308469333 0.006045464540651105
102827422 -0.003731671600667044 0.006009329735541381
102857184 -0.0037109502188716445 0.005984655596642603
102886946 -0.0037024100729803814 0.005948156544478602
102916708 -0.0037005664181659287 0.005929102218904253
102946470 -0.0036853224788358564 0.005891739609513184
102976232 -0.003675836536164098 0.005862279356307875
103005994 -0.003669599851955704 0.005834343270188283
103035756 -0.0036556758920323826 0.005806656301612832
103065518 -0.003651330627548035 0.005793437903469233
103095280 -0.003652478803860578 0.005820827829817267
103125042 -0.0036574829944446743 0.005841909375816024
103154804 -0.0036574893039025744 0.005870500909387849
103184566 -0.003663839673474865 0.005899885748969445
103214328 -0.003669242050218643 0.005921630898491116
103244090 -0.0036698484430888944 0.005950285884051014
103273852 -0.0036720181625862487 0.00597975389161763
103303614 -0.0036766874838488088 0.006001511437892299
103333376 -0.003684687611314189 0.0060217917920851955
103363138 -0.003593077500503068 0.006020540478935243
103392900 -0.0035148176719223476 0.0060116627748693545
103422662 -0.0034227905404789873 0.005995443457365574
103452424 -0.003341147496756354 0.005996491603031787
103482186 -0.003265336797631538 0.005979325682067936
103511948 -0.0031828834280612167 0.005969356616264842
103541710 -0.0031010731211247133 0.005953206342818486
103571472 -0.003025624342807918 0.005937018642898932
103601234 -0.002952587406844267 0.005921007284075304
103630996 -0.0029562023990184843 0.005913557915886509
103660758 -0.003001726172948104 0.005907747176287834
103690520 -0.003053077582893685 0.0059008973175552065
103720282 -0.003107294698114999 0.005896481746058639
103750044 -0.0031487959760388706 0.005891512980447403
103779806 -0.0031910241171829133 0.005878145864648877
103809568 -0.0032478229486564113 0.005872543362581656
103839330 -0.0032934926945184183 0.005864762524773836
103869092 -0.0033393513598314 0.005854917109706308
103898854 -0.003385207538964786 0.005849542934067396
103928616 -0.003423324087503898 0.0058747914938970065
103958378 -0.0034681027789160877 0.005907340758856359
103988140 -0.0035007265161121483 0.005920633997952675
104017902 -0.003552090600375346 0.005943636972676046
104047664 -0.00358861915066087 0.00595904498184275
104077426 -0.003633029488250754 0.005983264424183928
104107188 -0.003675098198902835 0.0060019481359118425
104136950 -0.003721519243494444 0.00602796893411027
104166712 -0.003771733461371742 0.006050347302541851
104196474 -0.003749333323024852 0.006082250235284901
104226236 -0.0037482695891478757 0.006133195845445242
104255998 -0.003737187890201894 0.006175187073128386
104285760 -0.0037226676466397277 0.0062154869653058865
104315522 -0.003714843697726706 0.006260336696166178
104345284 -0.0036919234431820915 0.006299003017549996
104375046 -0.003678744153355712 0.00634690367119345
104404808 -0.003666801426613271 0.00639711210169307
104434570 -0.003654154754715917 0.0064389566264188005
104464332 -0.003644022675212159 0.0064008696639040585
104494094 -0.0036476930858051083 0.00634875259446701
104523856 -0.003643701914873607 0.00629320647181124
104553618 -0.0036318053034900466 0.0062426077558313
104583380 -0.0036310873042871734 0.006183718559496705
104613142 -0.0036232567510935563 0.006128157105677802
104642904 -0.003624103102995181 0.006069770353289476
104672666 -0.003612721393635225 0.006017543647104416
104702428 -0.0036054668834489233 0.005966155407411929
104732190 -0.0035895018846511468 0.005953589845064261
104761952 -0.003578191193889383 0.006018782161784467
104791714 -0.0035567669444201105 0.006087500884229598
104821476 -0.0035396446392686703 0.006163636897339701
104851238 -0.0035202239973494615 0.006233125347295155
104881000 -0.0034946682396842996 0.006302643921051654
104910762 -0.0034633445261731234 0.006377494442406232
104940524 -0.0034506440761666738 0.006445722772910545
104970286 -0.003416766978670775 0.006522739179481039
105000048 -0.0033856851825252153 0.006598487318665547
