# HZ S RI R 50
90000000 0.00019301511210940208 0.004878533332185112
90029762 0.00023908916733473022 0.004904186266039065
90059524 3.385867837774507e-05 0.0049073114877321395
90089286 0.00017204770074182203 0.0049383657432895585
90119048 2.315949812643356e-05 0.004949528577741178
90148810 0.00015532724390103134 0.00498464829176851
90178572 0.00015189221125033628 0.005000000689519915
90208334 0.000189615959426759 0.005022536045392572
90238096 -1.3181887685539381e-05 0.005026815758352965
90267858 0.00012095366222405506 0.005056218910877833
90297620 0.00013337218121678047 0.005029210466035101
90327382 0.00021308316714802947 0.0049797476426797944
90357144 0.00019182728398928022 0.004915526390023987
90386906 0.00025995953256082474 0.004870604500967419
90416668 0.0001091803289322366 0.004796002341163717
90446430 0.00027238247777897637 0.004757452248875284
90476192 0.000339285187826954 0.004709054328946848
90505954 0.0003627739186814019 0.0046550528302281005
90535716 0.0003443933753197953 0.004600186031069947
90565478 0.00041736447694672776 0.004572687938423343
90595240 0.00042727647891499515 0.00455589473248078
90625002 0.00047048214174507205 0.004551030305096241
90654764 0.0005579641807110239 0.004543732247915935
90684526 0.0006022011212079573 0.00453818220630215
90714288 0.0006071103356041048 0.004524281226079743
90744050 0.0006502010923246999 0.004514628744404783
90773812 0.0007431409252037665 0.004505033764263184
90803574 0.0007468863143269818 0.00449009159593783
90833336 0.0008371957648036239 0.004473327133997265
90863098 0.0008695659538582241 0.00443256596779923
90892860 0.0008532277038599086 0.004392169581900458
90922622 0.0009137834482263565 0.004345952480765243
90952384 0.0009427838364424429 0.004307584864736596
90982146 0.0009282614269505476 0.004266051627066913
91011908 0.0009952351549381822 0.0042232732673382865
91041670 0.0009817895644889897 0.004175316172207719
91071432 0.0010101327258131342 0.004136465088310085
91101194 0.0009242165048780112 0.0040909338727121505
91130956 0.001078108896611967 0.004081798034032471
91160718 0.00103763589056357 0.004086041843105463
91190480 0.0010419478805452336 0.004093695965915481
91220242 0.0009316522932995201 0.004104778041422791
91250004 0.0010318078602277979 0.004108502800729471
91279766 0.0009259963495546022 0.004112224533236898
91309528 0.0010659179323514005 0.00411888887388647
91339290 0.00103144707465287 0.004117267719664219
91369052 0.0010610987335182701 0.00411991336667648
91398814 0.0009251275634877629 0.004106595638018081
91428576 0.0010401256989713598 0.004057197194336669
91458338 0.0010897707159324632 0.00401798460561623
91488100 0.0010717705523013395 0.003967725275161032
91517862 0.0010774002519797546 0.00391941928667491
91547624 0.0011269101206696313 0.0038729658726227747
91577386 0.001137307863504893 0.0038243640844967623
91607148 0.001123694913866446 0.0037686972224310186
91636910 0.0011370706005659197 0.0037222064010621857
91666672 0.0011765910015964045 0.0036712242674309054
91696434 0.0012140157699179943 0.0036298891634175116
91726196 0.0013107987979972026 0.0035830030222847
91755958 0.0013795791917809437 0.0035300829738015046
91785720 0.0014135975627910119 0.0034822017061502475
91815482 0.0015040994849515573 0.0034229623404951077
91845244 0.0015674428672322327 0.003364090452164294
91875006 0.0016005826771873705 0.003305385208691221
91904768 0.0015824190817653482 0.0032541060760290542
91934530 0.001720571026584878 0.003176097338015107
91964292 0.0017462954194084372 0.003132534246069624
91994054 0.0017916833346038772 0.0030905134876587593
92023816 0.0017089053970237808 0.0030786275681976374
92053578 0.001800422620703487 0.0030219573153109462
92083340 0.001821008666646425 0.0029862277371948743
92113102 0.001859436378364898 0.0029331118408035995
92142864 0.0018486698185398705 0.0028952128819442475
92172626 0.001891184440676788 0.0028474954479377366
92202388 0.0018457194825154436 0.002805067011494652
92232150 0.001884091379682295 0.0027489641941390833
92261912 0.0017925761562939228 0.002677136336225144
92291674 0.0018576768121893227 0.0025713785034497303
92321436 0.0018151023092020234 0.0025001914275712043
92351198 0.0018048619102852734 0.002412488135627468
92380960 0.0017670265856449127 0.002330485812388694
92410722 0.0017404877370565412 0.0022512132388123707
92440484 0.0017192526161540636 0.0021620618628453775
92470246 0.0017052210952014093 0.002070562235235114
92500008 0.0016612516660903204 0.002001916294233396
92529770 0.0016633296319449942 0.0019405462479239709
92559532 0.001674041653316046 0.0018712565453886585
92589294 0.0016655410114353101 0.001805571177187896
92619056 0.0016757076214366532 0.0017307159774534548
92648818 0.001677465473102723 0.0016653949464746686
92678580 0.0016497365270645842 0.0015943585619874045
92708342 0.0016502540976032992 0.00151352028279118
92738104 0.0016455796399521647 0.0014394584469127336
92767866 0.0016212312080923135 0.0013774134357010248
92797628 0.0016184028573316101 0.0012754871977487196
92827390 0.0015911442308585591 0.001178275648214061
92857152 0.0015647347134768415 0.001083597314959085
92886914 0.001534053565170043 0.001008203868613789
92916676 0.0015275574258882482 0.0008810648111614457
92946438 0.001491304852523438 0.0007868127173840172
92976200 0.0014548442869323824 0.0006960626074665472
93005962 0.0014027470770040871 0.0005896497332762958
93035724 0.0013714094111608348 0.00047359098902945656
93065486 0.00131836345478883 0.0003724611529676876
93095248 0.0012629489379262704 0.00024297517116478554
93125010 0.001205564175481717 0.000134382652801311
93154772 0.001132322569929266 3.158673553170023e-05
93184534 0.0010770360619333718 -7.367143415807393e-05
93214296 0.0009864153199186894 -0.0001879596868066363
93244058 0.000903487162918359 -0.0002831566777657049
93273820 0.0007878277803996024 -0.0003841365365195047
93303582 0.0006911226747190471 -0.0004651568019176584
93333344 0.0005647304782910668 -0.0005504758956046777
93363106 0.00047672733941736274 -0.0006151045704914719
93392868 0.00038229804187387664 -0.0006918932914093968
93422630 0.0002736667175584521 -0.0007487979354014404
93452392 0.00015759101664641643 -0.0008086012819581766
93482154 6.960462390095246e-05 -0.0008841871936627105
93511916 -5.3658496048640396e-05 -0.0009419213322654879
93541678 -0.00017841046748186192 -0.0009972219545545528
93571440 -0.00027681367784497497 -0.00106839173197581
93601202 -0.00039467024899927987 -0.001131773624334363
93630964 -0.0005288929290814601 -0.0011616331359263414
93660726 -0.0006719021490669747 -0.0012043799363517366
93690488 -0.0008345256688391869 -0.0012225649115999988
93720250 -0.0009690497106220538 -0.001265517185696137
93750012 -0.0011289513193435978 -0.0012896515157347086
93779774 -0.0012955590127663168 -0.001271461372696774
93809536 -0.0013866500854879844 -0.0013798433209036337
93839298 -0.0015842353529117305 -0.0012816964911781053
93869060 -0.001732379739218818 -0.0012597039438068675
93898822 -0.0018882751057983417 -0.0012305044934783692
93928584 -0.0020531648872204487 -0.0012269080329862432
93958346 -0.002179863825698244 -0.0011864936999253484
93988108 -0.002296336255255599 -0.0012655734255746175
94017870 -0.0024433934569205815 -0.001139735080160796
94047632 -0.0025476104596279703 -0.0012311598808410187
94077394 -0.0027262982463725923 -0.001049988606477471
94107156 -0.0028231546374644268 -0.0010473114806765018
94136918 -0.0029543451728832313 -0.0009639458351081724
94166680 -0.0030723750183844776 -0.0009310593539277089
94196442 -0.0033404117532384917 -0.0009636805102375621
94226204 -0.003628636355805762 -0.0010944207559808322
94255966 -0.003956327994125865 -0.0009823071842570473
94285728 -0.0043324048817451975 -0.0010987633185678513
94315490 -0.00472708812246363 -0.001152894772324443
94345252 -0.005167887360918078 -0.0012007656873396604
94375014 -0.005678250582162322 -0.0013589856288685849
94404776 -0.006241535023670257 -0.0014843749528018189
94434538 -0.006868506757032477 -0.0016916395805072345
94464300 -0.0068859800974332116 -0.001580969687977037
94494062 -0.006534818462232483 -0.001181220571210486
94523824 -0.0062418588591230135 -0.0008951011748982348
94553586 -0.0059684621194562365 -0.0007015833765229353
94583348 -0.005703949767006744 -0.0004580883969314493
94613110 -0.0054928787608431815 -0.000307940699537712
94642872 -0.005279595113906448 -0.00013231987500363613
94672634 -0.005066107408567702 4.88208463946526e-05
94702396 -0.004932600702272343 7.449778456374043e-05
94732158 -0.004739042752278759 0.00033012023904497077
94761920 -0.004850742471931838 0.00027016488760247534
94791682 -0.0047869284390369355 0.0004651582110073309
94821444 -0.004879097628798961 0.000464257600082421
94851206 -0.004812211690290352 0.0006537661720134686
94880968 -0.004888045965210688 0.0006657019768118108
94910730 -0.0047682311694701015 0.0009045879768623352
94940492 -0.004816124827715379 0.0009127219870016348
94970254 -0.0048554374485267416 0.0009429062828189452
95000016 -0.004804990170737897 0.001057177408213776
95029778 -0.004895854061161029 0.0010923238200009522
95059540 -0.0049167810740263 0.0011979471253124585
95089302 -0.0049775508305046285 0.0012492158035126728
95119064 -0.005012883176992532 0.0013368493289499248
95148826 -0.005103069189733343 0.0013482433689131173
95178588 -0.005126637876113108 0.0014446509041802283
95208350 -0.005176149918101699 0.0015038519735971303
95238112 -0.0052205281708344615 0.0015904896256081586
95267874 -0.0052768591615884744 0.001623537686633613
95297636 -0.00529008964509845 0.0017001247500659474
95327398 -0.005321145686382847 0.0017835315261508062
95357160 -0.005352025780356459 0.001825664043743784
95386922 -0.005337441028496516 0.0019069745940506057
95416684 -0.005361241344430364 0.0019642174177987868
95446446 -0.005388282576248867 0.002023585749085782
95476208 -0.005384238718712693 0.0020967004293295376
95505970 -0.005400735632528667 0.0021481886500084374
95535732 -0.005422918502314545 0.002205761995628707
95565494 -0.005419252915651317 0.0022956872208167497
95595256 -0.005422409187565555 0.0023686312346926823
95625018 -0.005396844233271738 0.002447819263036648
95654780 -0.005419629100107827 0.002535697369760244
95684542 -0.005390665651882921 0.0026200128163795192
95714304 -0.00537603876223008 0.002689598821002047
95744066 -0.005360460352851283 0.0027839502036016736
95773828 -0.005363486877057043 0.002858242352262305
95803590 -0.0053314012865315575 0.00293708468963136
95833352 -0.005325386875403014 0.00302010397862694
95863114 -0.005268374333762238 0.0030620940575428134
95892876 -0.005234668530286964 0.003093584934476054
95922638 -0.005180282715626618 0.0031296426811957267
95952400 -0.0051306148449547385 0.0031653851436236773
95982162 -0.005080405545204268 0.0031850960727408317
96011924 -0.005965958058310286 0.002740879634385869
96041686 -0.00482982457561001 0.0033599159208402537
96071448 -0.0049818415966133 0.0033274357695207268
96101210 -0.004712590519864932 0.0034109603061975506
96130972 -0.005677985571219182 0.002934186077221466
96160734 -0.004809153475752243 0.003443973371512541
96190496 -0.004810475787502629 0.003490939005744349
96220258 -0.004338224282214641 0.0028418682924773136
96250020 -0.0050407295641143705 0.003540269442647587
96279782 -0.004798994529987657 0.0035841897176808516
96309544 -0.004806481840206478 0.0036280476058780002
96339306 -0.004842914217046627 0.003738245749738259
96369068 -0.004937491471633808 0.0037511547001009018
96398830 -0.004831171110033609 0.003815554073716899
96428592 -0.004813432544485954 0.0038726588821945177
96458354 -0.004799125525520416 0.00384225179777993
96488116 -0.004028889871046459 0.004211419595118867
96517878 -0.004761538050541322 0.0039433780010655695
96547640 -0.004761010009162679 0.004012822554969627
96577402 -0.004754569924357836 0.004060067956290126
96607164 -0.00474063078366137 0.004116604725209911
96636926 -0.0039616217339509706 0.004454695992091416
96666688 -0.0047339411154909364 0.004223707613767991
96696450 -0.004400248529108745 0.004180872839079758
96726212 -0.004667817776917471 0.004159479908133036
96755974 -0.005462232038871576 0.0038060963628459474
96785736 -0.004601920151215699 0.004123524919203891
96815498 -0.005393995413632156 0.003770347653461066
96845260 -0.004538639720919296 0.004075360525871716
96875022 -0.004485932511458322 0.004059500285509575
96904784 -0.0044846180100950525 0.004014841509219513
96934546 -0.0043866758055300355 0.004032683459292752
96964308 -0.004435344490275984 0.003993488300102008
96994070 -0.004463547836672176 0.003967136676758004
97023832 -0.0037826837274391152 0.004215296306559316
97053594 -0.0044971827111618115 0.003954460514070387
97083356 -0.0045374840008118875 0.003930505439183891
97113118 -0.005314179573802553 0.0036112162456455547
97142880 -0.0045637875113553935 0.003919911978074971
97172642 -0.0039012494466505797 0.004170848412719917
97202404 -0.004618048009790058 0.0038930492869047443
97232166 -0.004614238449112183 0.003896751912527365
97261928 -0.004617352599747512 0.0039218294284092585
97291690 -0.004583363674734094 0.003958014605295034
97321452 -0.004568722674850669 0.003996246722131195
97351214 -0.004581237297707889 0.004018215617357227
97380976 -0.004556361645528875 0.0040534036433078745
97410738 -0.00452223215987802 0.004096912766325375
97440500 -0.004507805759419666 0.004127569463430023
97470262 -0.003807585049796006 0.004398524840928113
97500024 -0.004481503449474324 0.004191502585392119
97529786 -0.004497437050540538 0.0042179573197234825
97559548 -0.003774614124470911 0.004490128314606543
97589310 -0.004470539712736636 0.004304825852898083
97619072 -0.004391209416216134 0.004371331294724345
97648834 -0.004505291341877939 0.00437195036815919
97678596 -0.004469434431708494 0.004425588346489152
97708358 -0.0037661920910082814 0.004670612920506195
97738120 -0.004471009403194507 0.004507999254751445
97767882 -0.004465810260047152 0.0045354799768329585
97797644 -0.0051595392715680505 0.004324813604784888
97827406 -0.00437650287863088 0.00456764822540475
97857168 -0.004276392053634931 0.004583252832486788
97886930 -0.004214099625963077 0.004613536972632866
97916692 -0.004833998546096958 0.004421192615000003
97946454 -0.004085415216946927 0.004658224872408903
97976216 -0.004696212191875352 0.0044807554198105625
98005978 -0.0033132151944545835 0.004875221213063622
98035740 -0.0038954342049442015 0.0047493439436463785
98065502 -0.003912564202270757 0.004755025632914841
98095264 -0.003976171422037371 0.00477452354008715
98125026 -0.004016598118031446 0.00481713815733895
98154788 -0.003431781071459646 0.005009259397997465
98184550 -0.004161920533063668 0.0048582903148104255
98214312 -0.00422699421961662 0.004888957753952504
98244074 -0.003601325760349972 0.005082444066355966
98273836 -0.004407783502903316 0.004913835374013686
98303598 -0.004448013170255937 0.004931859612548189
98333360 -0.004522120494749384 0.00494157187310294
98363122 -0.004551427425711314 0.004914338607856739
98392884 -0.004494437015702238 0.004913313377522126
98422646 -0.004537927168694541 0.00486735761904009
98452408 -0.004523934901879497 0.0048404482601318325
98482170 -0.004474125748792992 0.004830843205526915
98511932 -0.0045038084433294216 0.004808412833768951
98541694 -0.003764396600253882 0.004985746954487902
98571456 -0.004437380655430999 0.0048004151682512495
98601218 -0.005103751714097106 0.004578526035131838
98630980 -0.00438224435329531 0.004804459111389138
98660742 -0.00434443120855265 0.004827667244940369
98690504 -0.0036253269236349796 0.005031656138059952
98720266 -0.004933590209161465 0.00473864724282514
98750028 -0.004203637352256072 0.004961423143653536
98779790 -0.00414089768350904 0.004993365515902534
98809552 -0.004138821495632652 0.005023779317470809
98839314 -0.0040440944283085855 0.005070415964877489
98869076 -0.0040434787285203175 0.005092010397537898
98898838 -0.004630877864510451 0.004995411280428239
98928600 -0.003976494424596472 0.005148429361514985
98958362 -0.0046557413145435255 0.0050311567041339406
98988124 -0.004065308237987447 0.005179704050159573
99017886 -0.004051325755852776 0.0051589600606649615
99047648 -0.004123063696807855 0.005146353722999836
99077410 -0.004077739541052963 0.0051986836949833425
99107172 -0.004103102947471885 0.005217338583181063
99136934 -0.004170190613470911 0.005210388043682778
99166696 -0.004190198789996995 0.005218397577112702
99196458 -0.004141312201015486 0.0052128601912420965
99226220 -0.004145575428339904 0.005196464431937384
99255982 -0.004211603808167972 0.0051500365088631645
99285744 -0.0041748693775950085 0.005146123871919707
99315506 -0.0042198551324227306 0.005114690655101214
99345268 -0.00422576608019158 0.0050832470943044826
99375030 -0.004195910100926779 0.005067190921158944
99404792 -0.004239853135582136 0.00504465459531949
99434554 -0.004253382391816631 0.005021045719648332
99464316 -0.004157539570379807 0.005058174755174615
99494078 -0.00413052491073233 0.005095124263325015
99523840 -0.004012749496319545 0.005139344835398527
99553602 -0.0039280873934188325 0.005201941039531095
99583364 -0.004436080015156796 0.0051496729933496
99613126 -0.0031410250367466773 0.005415878424275973
99642888 -0.0036909192305179792 0.00534851529067009
99672650 -0.0036062444991646404 0.0053922524600149135
99702412 -0.004107167883212602 0.0053222232983268945
99732174 -0.0035062253866095967 0.005434090094960727
99761936 -0.0033902115091592995 0.005427030062171994
99791698 -0.0036421269959658327 0.005369499085325318
99821460 -0.0036264044131728576 0.005355180839672004
99851222 -0.003724468470597598 0.0053254186801360015
99880984 -0.004291380262503629 0.005201546888266261
99910746 -0.0037427549613743383 0.005277841279198843
99940508 -0.004366511114468571 0.005139304363292143
99970270 -0.0042455784103589906 0.0051953292378975
100000032 -0.003865108452444039 0.005200368065245863
100029794 -0.003836662467242603 0.0052050744393987184
100059556 -0.003828085600685495 0.005207272517727917
100089318 -0.0038220681651397344 0.005214667508081024
100119080 -0.003807658265915834 0.005216819210969224
100148842 -0.0037900489031061726 0.005226396379717515
100178604 -0.003765254633733361 0.005226844742201017
100208366 -0.0037589321633953294 0.00523727915390006
100238128 -0.003738980992286267 0.005239571770931999
100267890 -0.0037330997499003867 0.00525009163024806
100297652 -0.0037322986145733915 0.005254609743549592
100327414 -0.0037298566605380554 0.005261212883852038
100357176 -0.0037303854621040062 0.0052621533007869495
100386938 -0.0037376394353164553 0.005268123073313344
100416700 -0.003762422809483114 0.005266919640011073
100446462 -0.0037707016098367597 0.005272712286682943
100476224 -0.003757460418260311 0.005281214350533599
100505986 -0.0037621762648441482 0.005279493392958784
100535748 -0.003755425042098736 0.005280099058387967
100565510 -0.0037699243805559006 0.00529648978405767
100595272 -0.0038215020660346375 0.00533739940220801
100625034 -0.0038919296944610097 0.005372895054802576
100654796 -0.0039399362084895605 0.005408846261477149
100684558 -0.003984228418755479 0.00544945750342328
100714320 -0.004030959344614015 0.0054916765218819665
100744082 -0.004099518413122795 0.005531389519743613
100773844 -0.004137213747269453 0.0055718478004172164
100803606 -0.0042027450698661735 0.005614352790954439
100833368 -0.004260205630204791 0.005658440244846092
100863130 -0.0042092468251932235 0.005649076187876547
100892892 -0.004147069838120298 0.005631297330815405
100922654 -0.004101763025964627 0.005621441772277087
100952416 -0.004043706876173965 0.005606843189367718
100982178 -0.003991062951615299 0.0055895169525138075
101011940 -0.003947282320766268 0.005567514252420919
101041702 -0.003920030831333066 0.005561082868000821
101071464 -0.0038694060739303056 0.005546459907103268
101101226 -0.003820982772631205 0.005533234636825415
101130988 -0.003819424747481759 0.00552307856769371
101160750 -0.003823418211353247 0.005514006485753112
101190512 -0.0038233828710793685 0.005515534162608344
101220274 -0.0038317886215470712 0.005508603863397993
101250036 -0.003839320526949897 0.005497041232861284
101279798 -0.0038397219528273486 0.005487091314260731
101309560 -0.0038407288785902265 0.005479883320520608
101339322 -0.003851331564880486 0.005469880221594205
101369084 -0.0038590941740315075 0.005461913910575686
101398846 -0.0038411419759141552 0.005470744376566475
101428608 -0.003786001200427382 0.005537203894055259
101458370 -0.0037128983689892108 0.005595863331256677
101488132 -0.0036613470450813255 0.005649939774238518
101517894 -0.003592530787078371 0.005704593771846867
101547656 -0.0035366706486153394 0.005751760849927735
101577418 -0.0034734718137107443 0.0058085235265847536
101607180 -0.0034088346341463725 0.005855080906329677
101636942 -0.0033289264506646075 0.00589747921511252
101666704 -0.003265027087270976 0.005939786519512643
101696466 -0.0033629397959206186 0.005898069031743118
101726228 -0.0034592757244062255 0.00585345794403015
101755990 -0.003549905013738698 0.005805804954829759
101785752 -0.003646574297140762 0.005748061537758113
101815514 -0.0037334172237109744 0.005696073711997497
101845276 -0.003818035324381608 0.005632747491228361
101875038 -0.003909690140470927 0.0055692325705375845
101904800 -0.003995364648623442 0.005498906806724929
101934562 -0.0040733807143979095 0.005430401574637602
101964324 -0.0040491452478238835 0.005442288644029043
101994086 -0.003958168457461043 0.005476785871064368
102023848 -0.0038807276836836735 0.005515151522507853
102053610 -0.0038000155479459377 0.005559133364908049
102083372 -0.003717975761342839 0.0055906485192624665
102113134 -0.003626005619444352 0.005616288092169234
102142896 -0.0035449721170813667 0.0056530538609708535
102172658 -0.003445897576718764 0.005685959141026772
102202420 -0.0033690397435538776 0.005715535999886696
102232182 -0.003268016537136874 0.005729318822511479
102261944 -0.0038650126111403997 0.006065150078490759
102291706 -0.00343634572662936 0.005790852230423579
102321468 -0.0035227358386232368 0.005814288324609426
102351230 -0.0036152877602206725 0.005845351766710319
102380992 -0.003715134017834531 0.005868406180642108
102410754 -0.0037997670751309803 0.005887730685241893
102440516 -0.003988014034863829 0.005912302958584184
102470278 -0.004086977842750012 0.005929191804303237
102500040 -0.004194405154900073 0.005944494676340201
102529802 -0.004148274221153767 0.005954188929577922
102559564 -0.004090167231268416 0.0059829121385542965
102589326 -0.004036494039020167 0.005986504123946698
102619088 -0.0039835446934759575 0.006000808940209084
102648850 -0.003941796655124232 0.006008448040817728
102678612 -0.0038778697968844178 0.006020733352786925
102708374 -0.003824705217950954 0.006035778535367695
102738136 -0.0037773199927906512 0.006051080620279259
102767898 -0.0037267598989260365 0.006055487495442029
102797660 -0.003703504761037484 0.006041216745215287
102827422 -0.003689590306117558 0.00601355076488957
102857184 -0.0036756119325646285 0.005976901600664186
102886946 -0.003673041101205784 0.005938096760418153
102916708 -0.0036640911614133115 0.005922777926005873
102946470 -0.0036503614304095942 0.005891216281405217
102976232 -0.0036445249331075445 0.005856690459507243
103005994 -0.0036317234687213693 0.0058261195921926875
103035756 -0.0036248617962176192 0.005803169055770451
103065518 -0.0036220650489026812 0.0057896358901170595
103095280 -0.0036161633453372552 0.005816569297403699
103125042 -0.003617915595400256 0.005840024657944625
103154804 -0.0036356947759849235 0.005863313026695972
103184566 -0.0036421557790367715 0.00588888058105053
103214328 -0.0036401451696687305 0.00592067531875923
103244090 -0.003641689990141907 0.005936790590255619
103273852 -0.0036438456300649648 0.005957260521240343
103303614 -0.0036447461877939943 0.005994561293915576
103333376 -0.0036522682211102457 0.006020893137939918
103363138 -0.0035676154480398805 0.006009584129335541
103392900 -0.0034774479397229933 0.006004625580273696
103422662 -0.003395783995038428 0.005995111627732301
103452424 -0.0033127783003093227 0.005987592224974271
103482186 -0.0032349250748907937 0.005974508677658659
103511948 -0.003149682613379761 0.005959449712131047
103541710 -0.0030774037605045337 0.005944186442796155
103571472 -0.003001418122675978 0.005926609654783518
103601234 -0.0029279743930820516 0.00591397896668225
103630996 -0.00292966774144934 0.005901604081599854
103660758 -0.0029779875587206644 0.0059036331661489905
103690520 -0.0030321159939875396 0.0058860347702157706
103720282 -0.003070675675638208 0.005892269447808108
103750044 -0.003119167846090275 0.0058835829737645205
103779806 -0.0031655038275796273 0.00587384287806759
103809568 -0.003213925077891817 0.005859486667827285
103839330 -0.003268409352579017 0.005850422975638169
103869092 -0.0033141314774529384 0.005846003895506435
103898854 -0.0033562405136058635 0.0058454157348712165
103928616 -0.0033917681972138445 0.005863330947149219
103958378 -0.0034394043006018963 0.005892302225052669
103988140 -0.0034857495770120126 0.00591130699932933
104017902 -0.0035163642643537716 0.00592748253572827
104047664 -0.003562148839448744 0.005955452421645397
104077426 -0.0036092720583135677 0.005965700010439065
104107188 -0.0036549575172237438 0.005994110249716947
104136950 -0.00369230536316757 0.006015277782455204
104166712 -0.00374340007578678 0.006032509699360367
104196474 -0.0037296296870619845 0.0060816990305451344
104226236 -0.003718185034946705 0.00611922417566874
104255998 -0.0037045859180449957 0.0061644530257677355
104285760 -0.003691280651628104 0.00620416938024259
104315522 -0.0036868139578336893 0.00624861542943383
104345284 -0.0036716527528893542 0.006286443252850906
104375046 -0.0036612249340112605 0.006334436940693951
104404808 -0.0036496085031322077 0.006377078212070151
104434570 -0.003625102435669568 0.006417568741473787
104464332 -0.00361929417643219 0.006394700752468187
104494094 -0.0036235160388171424 0.00633976282630729
104523856 -0.003625166277441529 0.006282307762947331
104553618 -0.0036161967170340744 0.006223883107644501
104583380 -0.0036028172489893503 0.006168022419438888
104613142 -0.0035985257261852387 0.006111763697824656
104642904 -0.003594548826986968 0.0060594065308693075
104672666 -0.003589207723582374 0.00599940435755972
104702428 -0.0035744532695227175 0.005951134118523741
104732190 -0.003577951022908156 0.0059405343499538184
104761952 -0.0035504721617759263 0.006007377359364591
104791714 -0.0035346171921589193 0.006071312759433857
104821476 -0.0035109195847800143 0.006150457060109611
104851238 -0.0035024294642829914 0.006215453432621758
104881000 -0.0034701559238464246 0.0062864623071837425
104910762 -0.0034521597826203025 0.006359812359833729
104940524 -0.003424579343159065 0.00643686212746575
104970286 -0.0033968561094161447 0.006505956641734419
105000048 -0.003371131945301607 0.006577352979979874
