# HZ S RI R 50
90000000 0.00023330759874780633 0.004846411569301607
90029762 0.0002716153553976375 0.004867434228133818
90059524 7.404780990026373e-05 0.004875334821856973
90089286 0.00020975740270491724 0.004905578319466973
90119048 5.8538547411188706e-05 0.004913987855973522
90148810 0.00019520533048327743 0.004944150479828726
90178572 0.00019035878521107133 0.0049647136962858935
90208334 0.00022508752758945905 0.00498943974848151
90238096 2.351712492841039e-05 0.00498749253819126
90267858 0.00016273213332677986 0.005021444593027814
90297620 0.00017951249229257294 0.0049870763860329894
90327382 0.00025313872708007684 0.004936464765600204
90357144 0.0002333305734815956 0.004880017446963347
90386906 0.00030755584914019186 0.004829145004811415
90416668 0.00015214958695260807 0.004755470233730969
90446430 0.00031023494644955984 0.004715063178185069
90476192 0.0003776741228614666 0.0046684234513059315
90505954 0.0004042083585155234 0.0046124943196754154
90535716 0.0003862512004209156 0.00455899336309005
90565478 0.00045821260332811674 0.004521770318155132
90595240 0.0004632019480968676 0.004511546822271426
90625002 0.0005071331688961347 0.004503677810607994
90654764 0.0005955054108396556 0.004498616071282116
90684526 0.0006431481229572534 0.004488750907941869
90714288 0.0006491539726308811 0.004473037375713419
90744050 0.0006940215700049292 0.0044608371356432515
90773812 0.0007803511761261632 0.0044456430568513535
90803574 0.000788042547245524 0.004432029339747575
90833336 0.0008773993992387961 0.004421495460335845
90863098 0.0009018798937141825 0.004377823515557257
90892860 0.0008856097862445984 0.004330583993970493
90922622 0.0009529657492720484 0.004289697282797786
90952384 0.0009733104502117519 0.004248919929345324
90982146 0.0009695839273845514 0.004205122879659496
91011908 0.001030529566665091 0.004158479893225373
91041670 0.0010214719447092999 0.00411586673955455
91071432 0.0010465638829535095 0.004073120571614663
91101194 0.0009629392261015843 0.004032515910619128
91130956 0.0011164107899613287 0.004013684063367201
91160718 0.0010768494451395658 0.00402237375980975
91190480 0.0010780872921083407 0.0040315189553207405
91220242 0.0009671672057733019 0.004036870562330442
91250004 0.0010755038028482998 0.004037814613262766
91279766 0.000965788431693707 0.004039272357908824
91309528 0.001105830388716073 0.004043661764197454
91339290 0.0010683989954629021 0.004043431153728449
91369052 0.0011041661125260538 0.004044719765223368
91398814 0.0009610259515758719 0.004025590991363126
91428576 0.0010800047968225071 0.0039836172228838035
91458338 0.0011216852788607525 0.0039358187818490115
91488100 0.0011036198138910354 0.0038834291470984878
91517862 0.0011129683287182167 0.0038361052170647787
91547624 0.0011568564065843937 0.003789247915723884
91577386 0.0011756844172018139 0.003734023017521212
91607148 0.001163839868200534 0.003685292387043086
91636910 0.0011707655536685182 0.003637855672504967
91666672 0.001210853282490962 0.0035822598404717867
91696434 0.0012421653560219313 0.0035352272601297135
91726196 0.0013373728913755414 0.0034850123257030774
91755958 0.001407000178149306 0.003434669632609928
91785720 0.0014421252158902044 0.0033819599653813685
91815482 0.0015325365397628548 0.003322491624813025
91845244 0.001591236896033197 0.0032550578841083963
91875006 0.001625056815630769 0.0031997036318294875
91904768 0.0015989364109454311 0.0031520116079947758
91934530 0.0017300018348856974 0.0030695229756545045
91964292 0.0017624281235457924 0.003019170281923119
91994054 0.0018107777900207326 0.0029700642150806817
92023816 0.0017269879017028948 0.0029546846992123364
92053578 0.0018137431809272157 0.0028973015068947615
92083340 0.001830930106809606 0.002858231862051886
92113102 0.0018693326762396405 0.002810590194649498
92142864 0.001858899832542056 0.0027672955167495476
92172626 0.0018934895754503997 0.002712830052266966
92202388 0.0018193181930740677 0.0026910108857172823
92232150 0.0018786037331018726 0.0026093202440199163
92261912 0.001793388721783187 0.002543263322107297
92291674 0.001842207220210836 0.0024445099279111807
92321436 0.001805961562027642 0.0023607688801383074
92351198 0.0017989223520707945 0.002261433828254957
92380960 0.0017497391292095083 0.002193285868559183
92410722 0.0017300449304091874 0.002105108443050792
92440484 0.0017120822659198842 0.0020160644860672317
92470246 0.0016887605584222866 0.0019320807685073824
92500008 0.0016453451694639026 0.0018504186066190733
92529770 0.0016424579658699046 0.001784976175724392
92559532 0.0016545270686038342 0.0017132671856059688
92589294 0.0016413412052122254 0.001651367967299775
92619056 0.0016445675976106652 0.0015757334463716943
92648818 0.0016376551448688472 0.0015023110137373022
92678580 0.0016152051352380558 0.001433467326192676
92708342 0.001610200187535378 0.0013590728978053542
92738104 0.0015872189849273851 0.0012773056600526983
92767866 0.0015662581745697556 0.0012089473418475626
92797628 0.001554241591423012 0.0011167625841983972
92827390 0.001529117830940528 0.0010173549560609613
92857152 0.0014968435150719158 0.0009193001486720234
92886914 0.0014739648672110579 0.0008293950233976496
92916676 0.0014426740790706703 0.0007237355101512465
92946438 0.0014067816352581405 0.0006148735190530118
92976200 0.0013597209835426924 0.0005189401818431761
93005962 0.001324386117435923 0.0004170751453577583
93035724 0.0012728950048443584 0.0003131399482371689
93065486 0.001230431514640327 0.00022771595625915912
93095248 0.0011521961796901517 0.00010397333135958773
93125010 0.001088139612623491 -5.444916514955731e-06
93154772 0.0009950747276373333 -8.87137666039372e-05
93184534 0.0009593516353795506 -0.00020839948034115878
93214296 0.0008141653356989013 -0.0003080517664664694
93244058 0.0007508642474670271 -0.0004273062081210751
93273820 0.0006473050999251464 -0.0004983891057952814
93303582 0.0005509800014588655 -0.0005913187684206991
93333344 0.0003950882153869484 -0.0006367146215669844
93363106 0.0003250487607443805 -0.0007214029675854329
93392868 0.00019559918477737555 -0.0007897840664639588
93422630 0.00012809759585860316 -0.0008736514826766474
93452392 1.219837635984005e-05 -0.0009229429868951932
93482154 -9.725570286382155e-05 -0.0009835651901406782
93511916 -0.00021404228271247358 -0.0010425308814035349
93541678 -0.0003326626306396663 -0.001084362352691059
93571440 -0.0004376361011507293 -0.0011679705015776591
93601202 -0.0005650294295260331 -0.0012126956102467275
93630964 -0.000703352047906955 -0.0012364482148776786
93660726 -0.0008339350029386141 -0.001301274998244177
93690488 -0.0009966466434981722 -0.0013184059198344089
93720250 -0.0011497845373867768 -0.0013435752401961202
93750012 -0.001270913014569474 -0.00142783122972118
93779774 -0.0014683319153118068 -0.0013432976814981806
93809536 -0.0015846067691657336 -0.0014085303982972668
93839298 -0.0017626595497056167 -0.0013187664054994553
93869060 -0.0019296558547379355 -0.0013052983321075293
93898822 -0.002094940040544974 -0.0012571038198342893
93928584 -0.002225133445638627 -0.0012438722244645915
93958346 -0.0023614976356493888 -0.001228391668641454
93988108 -0.0024841777716266044 -0.0012963754475600138
94017870 -0.0026320713327357293 -0.001172019991471183
94047632 -0.0027534810443391178 -0.0012279056074237184
94077394 -0.0028899206201290824 -0.0010683726207326414
94107156 -0.003004707329513542 -0.0010476260960730556
94136918 -0.003134879963526132 -0.0009648061574707415
94166680 -0.0032533466698620207 -0.0009191992316990158
94196442 -0.003540602574524132 -0.0009436375427099659
94226204 -0.0038535168406813856 -0.0010573742103683545
94255966 -0.0041895228418974565 -0.0009805587440041184
94285728 -0.004565155883574218 -0.0010440964096508744
94315490 -0.004971114443357152 -0.001137326559395976
94345252 -0.00543714911210441 -0.0011550459837568747
94375014 -0.0059511292130365505 -0.001343638783323913
94404776 -0.006550709576819076 -0.0014130607193674216
94434538 -0.007216699464887262 -0.0016532816653613894
94464300 -0.007192744080698106 -0.0015306641009296574
94494062 -0.006847724104891241 -0.0011386303988793517
94523824 -0.006518578337425698 -0.0008193400121926302
94553586 -0.006227875949697214 -0.0006143983919919252
94583348 -0.00592641793050228 -0.0003495815469422863
94613110 -0.005687520004887088 -0.00019180837032522086
94642872 -0.005460035314738092 -1.7697061294288306e-05
94672634 -0.005251143663732442 0.0001533930509989024
94702396 -0.005034542842925134 0.00028195685192880174
94732158 -0.004935411244887767 0.00037709918416581226
94761920 -0.004938214652846938 0.0004676721453000259
94791682 -0.004997048300587589 0.0005024513359691629
94821444 -0.0049630674759979995 0.0006475901133380172
94851206 -0.004998456546972715 0.0006897030875307283
94880968 -0.004930593146514532 0.000865535173439214
94910730 -0.004949649411351745 0.0009377729935689729
94940492 -0.004929030766021338 0.0010342095474264673
94970254 -0.004966086856114723 0.0010541980424860291
95000016 -0.0049064043057572395 0.0011889464174901397
95029778 -0.005005692058856851 0.0012055243569592273
95059540 -0.00502271323469212 0.0013304425109494187
95089302 -0.00507176942659945 0.0013863450318308183
95119064 -0.005106643629160653 0.0014603241745075556
95148826 -0.005210804630260687 0.0014754729951979406
95178588 -0.005216173415216611 0.0015805016347531062
95208350 -0.005271159666964671 0.0016433076690638027
95238112 -0.005308527232777274 0.0017173776115131587
95267874 -0.005360416527918616 0.001765950574921407
95297636 -0.00537052310468249 0.0018429275716736215
95327398 -0.005381873419796338 0.0019116473033006743
95357160 -0.005406365481483199 0.0019676675516540954
95386922 -0.0054120202936106115 0.0020444924431068908
95416684 -0.005428599875388363 0.0021024244751270743
95446446 -0.005445913731848074 0.002162699227752693
95476208 -0.0054446881898687705 0.002224366207445848
95505970 -0.005453964660545189 0.0023079851203230326
95535732 -0.0054675956208866125 0.0023665583829429065
95565494 -0.0054639680054099134 0.0024283235163612953
95595256 -0.005457900530656983 0.002517609243429825
95625018 -0.0054532796013243845 0.00258784352605051
95654780 -0.005429769903165769 0.0026790676247753983
95684542 -0.005417415984699961 0.0027607968169740325
95714304 -0.00540771870016496 0.0028397572696391774
95744066 -0.005389688606064277 0.0029187114181505
95773828 -0.005396349130969826 0.0029992536023316888
95803590 -0.005363239861881208 0.003082399019238111
95833352 -0.005251704218077237 0.0032101033520484787
95863114 -0.005286257449869481 0.003189579498428177
95892876 -0.005237238514507638 0.0032201266374030685
95922638 -0.005189963914349197 0.003250928036089413
95952400 -0.005139569274263607 0.0033024444983915705
95982162 -0.005087975634584886 0.0033142856208499298
96011924 -0.0058944928631530814 0.0027676108584736773
96041686 -0.004962295365460542 0.0033447703075730486
96071448 -0.004909951730061312 0.0033590200030788274
96101210 -0.004866481787986542 0.003371126245467001
96130972 -0.005729408901388077 0.0029377392559945033
96160734 -0.004862969822403102 0.0034608187092135937
96190496 -0.0050736647664422286 0.0034601065915892725
96220258 -0.0048825420137491955 0.0035334670785293425
96250020 -0.00469004244085391 0.003602685720918584
96279782 -0.005091898866149756 0.003601965577123345
96309544 -0.004900747445228334 0.0036618940465236558
96339306 -0.004894477132242322 0.003694504965725196
96369068 -0.0049130614913803095 0.0037438744347763732
96398830 -0.00491699586994083 0.003780315424290012
96428592 -0.004897258892699705 0.003848979303674901
96458354 -0.0049027381079175675 0.0039136289568376175
96488116 -0.004112546132631713 0.004268793921767738
96517878 -0.004881570565215364 0.004035546895875717
96547640 -0.004877546785528403 0.004091318860443451
96577402 -0.004871957756088521 0.004141707334399276
96607164 -0.004845949013733149 0.004209619023099117
96636926 -0.004098298466919266 0.00450954705330686
96666688 -0.004847125258487479 0.004320428607721019
96696450 -0.0047965705385462284 0.0043084370781048325
96726212 -0.004774951558827499 0.00428219406169369
96755974 -0.005601840134556209 0.003922538287457263
96785736 -0.004682495822224258 0.0042393509537694465
96815498 -0.005508636286927853 0.0038925872728352543
96845260 -0.004620721033597534 0.0041981944762467475
96875022 -0.004586606078569258 0.004171843965601269
96904784 -0.004561596901593311 0.004143769322928279
96934546 -0.004480219490002463 0.004144661141844741
96964308 -0.004525847441575994 0.004108052850492721
96994070 -0.004541249404428374 0.004104474961526748
97023832 -0.0038477914716158303 0.0043282408565297695
97053594 -0.004567590737215742 0.0040799138784727
97083356 -0.004609735500291755 0.004056068269108049
97113118 -0.005392708534124284 0.0037526957571481193
97142880 -0.00463866988881781 0.004040873115596371
97172642 -0.003942152684896853 0.004290783533230119
97202404 -0.004682567941051119 0.004007786299046221
97232166 -0.0046671496212381544 0.004021076855427479
97261928 -0.0046735999322492 0.004053615733187409
97291690 -0.00463850330243284 0.004094397119912502
97321452 -0.004621534908963531 0.004131519891368757
97351214 -0.004625389303811114 0.004170096224130989
97380976 -0.004599133580558791 0.004193580077105564
97410738 -0.004570369318868761 0.00424929917088497
97440500 -0.004552149790415493 0.004275938815173728
97470262 -0.003822051021043404 0.00453556488061916
97500024 -0.004510061024810782 0.004350357722683425
97529786 -0.004533604251743016 0.004384163862708803
97559548 -0.003805814603000883 0.004631846637751874
97589310 -0.004509073606091102 0.004466083757267718
97619072 -0.0044150834401242315 0.004520541953636175
97648834 -0.004520472129023859 0.004535185860802889
97678596 -0.00449817693092334 0.004573711045801537
97708358 -0.003777892339684061 0.004807726575710825
97738120 -0.00448153404269405 0.004650299865187749
97767882 -0.004489667827113554 0.004690232668720807
97797644 -0.005185447036315398 0.004494587293079432
97827406 -0.004394506213162111 0.004724196381771665
97857168 -0.004288425607004719 0.004751011679811176
97886930 -0.004234663203751163 0.004766322464683955
97916692 -0.004864326622976275 0.004595242966651976
97946454 -0.0040958011258613045 0.004800255379422765
97976216 -0.004698613931517365 0.004634763896631176
98005978 -0.003317514422858855 0.004992515591074348
98035740 -0.0038917392007628416 0.00485234227501673
98065502 -0.0039099317397910385 0.004854643623806629
98095264 -0.003972977358368453 0.004877219789682379
98125026 -0.0039997635960922874 0.0049074188188335515
98154788 -0.003420537018364544 0.005081865972464234
98184550 -0.004141683156694286 0.004935500184663581
98214312 -0.004207638716394811 0.004962812427677289
98244074 -0.0035996097069928928 0.005134376155501131
98273836 -0.004393443289506193 0.004977000373402081
98303598 -0.004429667746800277 0.005002128141450762
98333360 -0.004503779057844455 0.005007566279657676
98363122 -0.00453204608829781 0.004969763996411433
98392884 -0.004484716231431255 0.004957108033962613
98422646 -0.0045150824623736265 0.004922786629492025
98452408 -0.0045035225027853145 0.004896829478587272
98482170 -0.004450281320033825 0.00488363853313448
98511932 -0.004476731021549205 0.004852145497068737
98541694 -0.003748760660529751 0.005014817062340123
98571456 -0.0044174168180475554 0.0048068143722766994
98601218 -0.0050947094572527715 0.004590121381419129
98630980 -0.004372129897924666 0.004798994808125808
98660742 -0.0043269705867278714 0.0048524934503019505
98690504 -0.0035969168629019018 0.005039349918674923
98720266 -0.004905282032714385 0.004741047491036934
98750028 -0.0041836365709797384 0.004944318459436846
98779790 -0.004136259377727481 0.004979252507486273
98809552 -0.0041375455206159985 0.005005255208399107
98839314 -0.0040426635908287385 0.005047683950300683
98869076 -0.004038925165488376 0.005066487190370521
98898838 -0.004628804656525996 0.0049754544250001425
98928600 -0.003986126205957577 0.00512862692913844
98958362 -0.004658359326974945 0.004993677994923967
98988124 -0.004061168587235429 0.005142503134005261
99017886 -0.004043405925744736 0.005172117961656047
99047648 -0.004087988127473804 0.005178938969489756
99077410 -0.004051019772333983 0.005211055826176564
99107172 -0.004072800440379419 0.005233213045318159
99136934 -0.00414503810631672 0.005234439893207611
99166696 -0.004163626695855014 0.005242214136525702
99196458 -0.004101947440673882 0.005247091591343606
99226220 -0.004109420432448297 0.005219495986658811
99255982 -0.004191884773072292 0.005176076354524889
99285744 -0.00414828677486762 0.005159993149076341
99315506 -0.004191517693395578 0.00513763609931733
99345268 -0.004196153060517713 0.0051082152713783765
99375030 -0.00414668879391052 0.005094857324822836
99404792 -0.004121131353355839 0.005075418151940216
99434554 -0.004217094563094418 0.005046565491759096
99464316 -0.004119759554107217 0.0050838593873386035
99494078 -0.004106122879084286 0.005118872417042447
99523840 -0.003963341279040896 0.005180665830762659
99553602 -0.0039106466736373545 0.005219253446428015
99583364 -0.004427057836284596 0.005145655162963195
99613126 -0.003122728171523327 0.005425924007853775
99642888 -0.0036725832546287184 0.005346371548381751
99672650 -0.003603167057532033 0.005391516099431542
99702412 -0.0040961013661510465 0.0053323713773846745
99732174 -0.0032255098044522345 0.005384826256314428
99761936 -0.0033370606988191434 0.005450269094798598
99791698 -0.003593163499700439 0.005390819909234375
99821460 -0.0035784799238328595 0.005362419571431706
99851222 -0.003704835319982011 0.005333633246224715
99880984 -0.0042689617381477096 0.005212137480130268
99910746 -0.003775261411444844 0.005292338560985077
99940508 -0.00431320767512073 0.005149211444538872
99970270 -0.003796834984352059 0.005234374498835341
100000032 -0.0038149137835008936 0.0052039124379520615
100029794 -0.003802058010143081 0.005205796772327768
100059556 -0.0037936213724327665 0.005212570389715898
100089318 -0.0037806071054018306 0.00521861177895541
100119080 -0.0037733340542946683 0.005222660621656215
100148842 -0.003764630862893949 0.005229791948323585
100178604 -0.003749797623013496 0.005240027665069457
100208366 -0.003707438680671473 0.005224562240809644
100238128 -0.0037121802162337235 0.005243330077579355
100267890 -0.003685198294692523 0.005256588931240536
100297652 -0.0036775456753326066 0.005248181018902366
100327414 -0.0036842243064648212 0.0052474212396122506
100357176 -0.0036931718694391247 0.005248194940913991
100386938 -0.003693187294723675 0.005257353353974724
100416700 -0.0037024371873609655 0.005266061329260552
100446462 -0.003698963254136828 0.005249418480757912
100476224 -0.003725540807503986 0.00528147682572191
100505986 -0.003722442414741082 0.005273022408223538
100535748 -0.0037417385850262476 0.005280299957566519
100565510 -0.003751120114058963 0.005304341206603721
100595272 -0.0037936636972717088 0.005328230368243028
100625034 -0.0038372169079106755 0.0053658195984586125
100654796 -0.003898453589295808 0.005417765003678233
100684558 -0.0039413073750962195 0.005448596192265114
100714320 -0.00400791476727096 0.0054958983308213295
100744082 -0.004027372774010042 0.005521169134829091
100773844 -0.004085014550828865 0.0055419527082038195
100803606 -0.004141756210877661 0.00560301853578419
100833368 -0.004206563883384743 0.0056526847529270955
100863130 -0.0041532226631721065 0.005633719749515317
100892892 -0.004095512593260057 0.005615816001298783
100922654 -0.004052835403784737 0.0055887363058563615
100952416 -0.004020052424392383 0.005573437431924519
100982178 -0.003964008337780584 0.0055874926234963885
101011940 -0.003915544909639928 0.005571838063644444
101041702 -0.0038750360478651425 0.005561212825425534
101071464 -0.0038290662243597776 0.005541931790149181
101101226 -0.003779190009413068 0.005527006111874105
101130988 -0.003776262637477404 0.005521653141756605
101160750 -0.003787522361504041 0.0055192065569063834
101190512 -0.00378373440923185 0.005508214837007387
101220274 -0.0037940275639940014 0.005484780756439671
101250036 -0.003787434825228688 0.005487953211749242
101279798 -0.0038002203712029143 0.005479263034370413
101309560 -0.003803564674888736 0.005471207868547236
101339322 -0.003807100224435269 0.005466679697559884
101369084 -0.0038217562801213406 0.005459544850528214
101398846 -0.003810599385326434 0.0054651355526502046
101428608 -0.0037463443906829894 0.005523137008906315
101458370 -0.003704066817210286 0.005589834257918024
101488132 -0.003635575517996578 0.00562720601647628
101517894 -0.0035607486009251762 0.005692754687755008
101547656 -0.003506556403088501 0.0057382925141896005
101577418 -0.003435505950322484 0.005788681818790483
101607180 -0.00336960386654297 0.005830340595063143
101636942 -0.0033041461998438684 0.005875336964528927
101666704 -0.0032417231210763384 0.005928972666296793
101696466 -0.0033436827847749934 0.005864242554330925
101726228 -0.0034273565058915694 0.00583854599061701
101755990 -0.003533400499757696 0.005792198850982786
101785752 -0.003620791046855649 0.005738020666232308
101815514 -0.003719366385694257 0.005677247953225485
101845276 -0.00380311565011876 0.0056336948883342
101875038 -0.0038950721398410813 0.005557641760518742
101904800 -0.003978440626715688 0.0054950296110239626
101934562 -0.00405474824433672 0.005431109305347805
101964324 -0.004037722912127869 0.00543715041566824
101994086 -0.003951153288852241 0.005463444903986175
102023848 -0.003871019001669315 0.005524314881400399
102053610 -0.0037792951864389504 0.005544663294414441
102083372 -0.003698157640461452 0.005587723863752576
102113134 -0.0036108165872096184 0.00561988114700365
102142896 -0.0035321239995316045 0.0056541191324853855
102172658 -0.0034502513047253137 0.0056801858815575396
102202420 -0.0033585306312670627 0.005711137097319537
102232182 -0.003339053678190288 0.005738168464010541
102261944 -0.0034196724850307342 0.0057691969594876455
102291706 -0.00350232748873916 0.005784013736996975
102321468 -0.0035856862213188463 0.005814041120010153
102351230 -0.003689373733618969 0.0058305160144551706
102380992 -0.003774616247012152 0.005858904079248435
102410754 -0.003878334519893927 0.005897404280375001
102440516 -0.003976259709372295 0.00591545708119307
102470278 -0.00408305929782587 0.005928173352176538
102500040 -0.004191296075557133 0.005953325828376269
102529802 -0.004132425413053628 0.005968806859215351
102559564 -0.003994316117984562 0.005974651274068732
102589326 -0.004110751399944875 0.0059940738216153104
102619088 -0.004063121742535563 0.006004357945323756
102648850 -0.0038390792070838787 0.006016122817207164
102678612 -0.0037854699121065093 0.00602082813110792
102708374 -0.0037323991482721783 0.00602779054651649
102738136 -0.0038484159312554868 0.006054979368593028
102767898 -0.003716271272056425 0.0060562475420715125
102797660 -0.003683823268866395 0.006042109489356605
102827422 -0.00367746779459848 0.005995080158288185
102857184 -0.0036719405808646223 0.005967295617719644
102886946 -0.0036614117996829876 0.0059549922910806016
102916708 -0.0036562795551976284 0.005927123170609622
102946470 -0.0036429221947105756 0.0058951998311849475
102976232 -0.003645208881677055 0.005862515798323313
103005994 -0.0036172831504188998 0.005829230443190054
103035756 -0.00362177238695537 0.005804533636784175
103065518 -0.003615578678161121 0.005796910983865758
103095280 -0.003607869068950251 0.0058273380825139
103125042 -0.0036148674342176704 0.005842502516091937
103154804 -0.0036208723828110106 0.005866176517383313
103184566 -0.0036243109608812447 0.005894766521557004
103214328 -0.0036264254365226947 0.00592582438448026
103244090 -0.0036350775861880504 0.005934172319476176
103273852 -0.0036354138070530287 0.005957077960109385
103303614 -0.0036425752286877743 0.005985448110873307
103333376 -0.003635498783399598 0.0060257389397871865
103363138 -0.003559533907613263 0.006009355079499565
103392900 -0.003470298111460434 0.006001764369611744
103422662 -0.0033901406121697687 0.0059896436619091345
103452424 -0.003311248464811112 0.005982440711547946
103482186 -0.00322346920064947 0.0059771188742149175
103511948 -0.00315130274104134 0.005952771177819996
103541710 -0.003066449886357497 0.005941318435709224
103571472 -0.0029880278367100544 0.0059239466962067696
103601234 -0.002914892320667 0.005916318923610404
103630996 -0.002923750672237246 0.005914489270795732
103660758 -0.002968121343641332 0.0059009009899515935
103690520 -0.003017081669713082 0.005894070906563869
103720282 -0.003058231956055838 0.0058903706050821665
103750044 -0.0031096603502236493 0.005884162681389531
103779806 -0.0031592412047459478 0.005874201681170846
103809568 -0.0032155076792647346 0.005866195146624622
103839330 -0.0032566933102271957 0.005852815987332083
103869092 -0.003307926017570801 0.005844162105374987
103898854 -0.0033579964771666064 0.005848698417572804
103928616 -0.0033916354691021604 0.005872321279412308
103958378 -0.0034350566766483187 0.005893460638593728
103988140 -0.003466036389088571 0.005907451209988801
104017902 -0.0035196181820139837 0.005928836953641098
104047664 -0.0035583256636185535 0.005959267343217476
104077426 -0.0035912504424025545 0.005979609221621111
104107188 -0.003651396948906388 0.005996641310567866
104136950 -0.0036882491577298446 0.00601089691398908
104166712 -0.0037440346728257546 0.006032227959417631
104196474 -0.0037277564399928052 0.006069504848245682
104226236 -0.003714095233094178 0.0061099761408646555
104255998 -0.003698760159065634 0.006158937240187327
104285760 -0.003695141135777219 0.006201912521130752
104315522 -0.003676478560504574 0.006243199246518555
104345284 -0.003673514985901721 0.006291161390167526
104375046 -0.003653362430767333 0.006336278544285754
104404808 -0.003636606905628285 0.006376765408585676
104434570 -0.003625897471306807 0.0064129687503588955
104464332 -0.0036170284507978175 0.006396678713119872
104494094 -0.003619143966566748 0.0063480904337980685
104523856 -0.0036095332877209446 0.006281583139664686
104553618 -0.0036088836237319014 0.006223166010753668
104583380 -0.0036069482094179144 0.00616788338116506
104613142 -0.0035961719215209377 0.006106552670227693
104642904 -0.0035854949766345665 0.006063657467176321
104672666 -0.003585218023565828 0.006005200863635471
104702428 -0.0035762632970381112 0.005954803178216245
104732190 -0.0035691950726438743 0.005943391803058545
104761952 -0.0035579687720722693 0.00600785567725414
104791714 -0.0035297370384459537 0.00608197922634693
104821476 -0.0035088674538136877 0.006150188812118229
104851238 -0.0034937461978961277 0.006214962672216296
104881000 -0.003470237245164944 0.0062989745053231745
104910762 -0.0034442248391119783 0.006360214806697849
104940524 -0.00342386037175666 0.006437780599495331
104970286 -0.003391940092159208 0.006508118884026898
105000048 -0.003368792466617996 0.00657134385143399
