# HZ S RI R 50
90000000 0.0002591946131951231 0.004817907455219517
90029762 0.00030683948094533276 0.004843165957006768
90059524 0.00010362455771129495 0.004843779260898624
90089286 0.000242558031436104 0.004873379050102492
90119048 8.790128569091545e-05 0.004883955543902471
90148810 0.00022995068145912744 0.004912693767896475
90178572 0.00021696764268603022 0.004931790678310337
90208334 0.0002639460710122947 0.004955877265949071
90238096 6.054052555458233e-05 0.004951887753000396
90267858 0.00019772633468417145 0.004981296045064919
90297620 0.00021535845266114058 0.004956957451442975
90327382 0.0002883040320640652 0.0049061626544377405
90357144 0.00026785998177116703 0.0048447203939067625
90386906 0.0003384266192352748 0.004789818097935381
90416668 0.00018493949073117652 0.00472290933463736
90446430 0.00034720474791464183 0.004679167338456036
90476192 0.0004134250322820198 0.004625540875007263
90505954 0.0004432141344092342 0.00457481917885902
90535716 0.0004231555578373557 0.004518648258459709
90565478 0.0004916394806408171 0.004486687899467223
90595240 0.0005000455978945654 0.0044737905718236605
90625002 0.0005429970198194895 0.004462311058647502
90654764 0.0006288591565975173 0.004451897674790725
90684526 0.0006743149481330696 0.004438464906515646
90714288 0.0006818898776229053 0.004431355129508848
90744050 0.0007279531099074451 0.00441236979932483
90773812 0.0008172467621015216 0.004399414568285346
90803574 0.0008233514825949335 0.004381310669668948
90833336 0.0009109981788999817 0.004367045824909108
90863098 0.0009417851420394727 0.004320106440901445
90892860 0.0009269906249390983 0.004280146963226893
90922622 0.0009922716063023274 0.00424019369495782
90952384 0.0010156534146241218 0.004191292437672354
90982146 0.001002486506825953 0.004146036920278274
91011908 0.0010675334555125583 0.004104131887405604
91041670 0.0010583111367452244 0.0040551889526952625
91071432 0.0010788543399971337 0.004012107319195384
91101194 0.0009924180536945663 0.003973734873949204
91130956 0.0011520061365224688 0.00395360918880555
91160718 0.0011161630521629104 0.003957785600462201
91190480 0.0011146178930009334 0.003965389319879912
91220242 0.001009370013427584 0.003965233570314263
91250004 0.0011124171660387987 0.003968885740981583
91279766 0.0010058537114150195 0.003965972294751131
91309528 0.0011463239756691025 0.003965873515988202
91339290 0.001108284085578518 0.003972177356482385
91369052 0.0011429162790135847 0.003967167108350108
91398814 0.0010076180620268399 0.00395586344836731
91428576 0.0011213654994362003 0.003901379868584437
91458338 0.0011710975907426617 0.003848224054871024
91488100 0.0011452322966024081 0.0037985871202905
91517862 0.0011588818353149722 0.003749405020434506
91547624 0.0012063968001877323 0.0036946060674280506
91577386 0.0012171922951208934 0.0036450273913333424
91607148 0.0011932937501192447 0.0035974055238780153
91636910 0.0012118833259249931 0.00354459184771686
91666672 0.0012474838784690301 0.003489625913283581
91696434 0.0012952533382783909 0.0034419561940408137
91726196 0.0013781560742260094 0.0033843277324242444
91755958 0.001440621530778676 0.0033331777108067577
91785720 0.0014724408710688516 0.0032768594028553433
91815482 0.00156205477508951 0.003215958020626322
91845244 0.0016186019644795953 0.0031543403830936833
91875006 0.0016522094313322982 0.003089838816628425
91904768 0.0016336615848747758 0.003029411237724994
91934530 0.0017568378262107177 0.0029486148694548046
91964292 0.001786406889617477 0.0028984991643354
91994054 0.0018242367117502203 0.002851058714933425
92023816 0.0017451565513499265 0.0028254234563898748
92053578 0.0018267290535499347 0.002764730659338597
92083340 0.0018459540563857564 0.0027257583016364706
92113102 0.0018791309304491434 0.002675421638631911
92142864 0.0018624959899958997 0.0026331659681251333
92172626 0.001903304077575373 0.002562718077943415
92202388 0.0018203923477568213 0.002539191873568746
92232150 0.0018847640271698481 0.0024541757777198077
92261912 0.0017868989479289498 0.002390554402362128
92291674 0.001840114847704514 0.0022768189049870158
92321436 0.0017993810786913085 0.00219424282119578
92351198 0.0017832483076322611 0.0021038616579852117
92380960 0.001741366322928936 0.002026418705248434
92410722 0.0017137085411430715 0.0019286697560665239
92440484 0.0017029452575824762 0.001840318715608701
92470246 0.0016686204576737559 0.0017563121508694412
92500008 0.0016219846066126964 0.0016715432616937584
92529770 0.001606736501578486 0.0016028510029782548
92559532 0.0016066431349769479 0.001525082390838493
92589294 0.0015906372342505161 0.0014579604772315168
92619056 0.0015810706772198544 0.0013831525548937064
92648818 0.001569106323200606 0.001298210670168118
92678580 0.001553865936401316 0.0012225760870939596
92708342 0.0015287992809727487 0.0011482787635934157
92738104 0.0015109138668092696 0.0010656080541959516
92767866 0.0014753720477879817 0.0009897954985741825
92797628 0.001454448474762684 0.000896532087635615
92827390 0.0014258103799013283 0.0007897031865392732
92857152 0.0013853101643746715 0.0006925350663097851
92886914 0.0013449476015546483 0.0006159750734647916
92916676 0.0013017433128415046 0.0004931985010635522
92946438 0.0012648601422631102 0.00041118120965153625
92976200 0.0012035597068325585 0.0002927667686749979
93005962 0.0011672696531300453 0.00021338346604608303
93035724 0.001096043653883071 9.882361667493677e-05
93065486 0.0010411334589191608 -8.207322332476953e-06
93095248 0.0009562478644485398 -0.0001100706059724096
93125010 0.000888640573934522 -0.00019517014216260072
93154772 0.000782461848362382 -0.00031370986746852373
93184534 0.0007134506844616314 -0.0004090448635210323
93214296 0.0005931380288745348 -0.0004930519359175869
93244058 0.0005122838404852922 -0.0005950156888132529
93273820 0.0003731166466073202 -0.0006637532955018729
93303582 0.00025607656857600317 -0.0007425096971717949
93333344 0.00011982969607689733 -0.0007916803456952967
93363106 1.7647812310406435e-05 -0.0008631630433167141
93392868 -7.634303595421962e-05 -0.0009226371130258114
93422630 -0.0002151697899886605 -0.0009903909154810615
93452392 -0.0003242087658040601 -0.001019886984247955
93482154 -0.0004274724886925229 -0.0010827481558370834
93511916 -0.0005713104934066483 -0.0011220440107172177
93541678 -0.0006795903587458547 -0.0011611675484877171
93571440 -0.0007889535516896047 -0.0012516293125797134
93601202 -0.0009254299056385142 -0.0012680835562325125
93630964 -0.0010643207653830596 -0.001286469082338503
93660726 -0.0012060003876219005 -0.0013257083503935277
93690488 -0.0013869126382278886 -0.0012984836014410346
93720250 -0.0015221658967040004 -0.001336840772614928
93750012 -0.001674547122147066 -0.00132233814467132
93779774 -0.0018514826317999442 -0.0012777924310199771
93809536 -0.0019562063035150194 -0.0013458784497865283
93839298 -0.002131900927524365 -0.00124185888332532
93869060 -0.002289740749544104 -0.0011976580036968491
93898822 -0.002430371552877139 -0.0011357818222965312
93928584 -0.0025629333665546706 -0.001125585948438574
93958346 -0.0026962768969827685 -0.0010348379004048783
93988108 -0.0028100940871387792 -0.0011440397860038704
94017870 -0.002940148391680989 -0.000985127997067285
94047632 -0.0030628129686749704 -0.0010370817514612958
94077394 -0.0031752786594960265 -0.0008588540023896211
94107156 -0.003303227915077465 -0.0008319051075749897
94136918 -0.0033967006415066585 -0.0007443785071815228
94166680 -0.003512623287807112 -0.0006887946589540102
94196442 -0.003791928659069917 -0.000697238420430581
94226204 -0.0041168207960627775 -0.0008148606808498757
94255966 -0.004451817840125162 -0.0006825222953932746
94285728 -0.0048326148478377 -0.0007534898136863948
94315490 -0.005258642740242113 -0.0008205684284500316
94345252 -0.005733560509532647 -0.0007959201205384588
94375014 -0.006263137793201717 -0.0009394709911063887
94404776 -0.00684032459686719 -0.0010416453802626201
94434538 -0.007525385267995491 -0.0012333683140565072
94464300 -0.007491851120680864 -0.0011092456121942864
94494062 -0.007052418786645138 -0.0007337720098808427
94523824 -0.0067073232171855875 -0.0004520713941978945
94553586 -0.006397414230576037 -0.0002806465962453721
94583348 -0.006075674436249931 -4.901938851261622e-05
94613110 -0.00581457862478948 0.00010163264022911189
94642872 -0.005557596343385701 0.00025445103960169057
94672634 -0.005315092320207667 0.000385310441369819
94702396 -0.005115517083058449 0.0005100983095244438
94732158 -0.004976907559383675 0.0005885314589727757
94761920 -0.004990678497696025 0.0006851203121827035
94791682 -0.005022182928790671 0.0007174400961272453
94821444 -0.00498452331046955 0.0008675938920359804
94851206 -0.005016582862158599 0.0008871811651365092
94880968 -0.004951113130506092 0.0010579631904347412
94910730 -0.0049563909637254785 0.0011328234054996129
94940492 -0.00493050278058794 0.0012177164149874448
94970254 -0.004957026053669206 0.001249234490110366
95000016 -0.0048930775348568845 0.0013546284481498452
95029778 -0.004983155565104902 0.001380967584235245
95059540 -0.004999337367900212 0.0014942363056514344
95089302 -0.00504137801846868 0.0015554546078360625
95119064 -0.0050812522173709716 0.001620708760431905
95148826 -0.005181757500988923 0.0016343478903077743
95178588 -0.005186530049511363 0.0017216246406775138
95208350 -0.005249688051616455 0.001794352678485489
95238112 -0.005268960631901944 0.0018603614589639383
95267874 -0.005337201392455446 0.0019009606246125166
95297636 -0.00534581186880903 0.0019625251176933582
95327398 -0.005355137784833539 0.00204476524261106
95357160 -0.005381301478744995 0.002086477716498721
95386922 -0.0053829012621510785 0.002166639217714587
95416684 -0.005382742603818848 0.002230964073708533
95446446 -0.005398623176627031 0.0022929088172023355
95476208 -0.005402617666208556 0.0023526637164130856
95505970 -0.005423276101719624 0.0023892368681190496
95535732 -0.005429112986156904 0.002441217149994555
95565494 -0.005411201178667766 0.002533331032425184
95595256 -0.0054152011747515445 0.002602948453907384
95625018 -0.005413376895977165 0.0026836607584688065
95654780 -0.005389075237434919 0.002766724962790831
95684542 -0.005381610288770977 0.0028453305607765464
95714304 -0.005361100214584344 0.0029232982201011434
95744066 -0.005351752669833801 0.0030036552898483606
95773828 -0.005341165794395974 0.003077209773400461
95803590 -0.005307759760319464 0.003151371842864724
95833352 -0.005299259211100357 0.0032203068720221325
95863114 -0.005230921901666395 0.003259293408305423
95892876 -0.005182395278796809 0.0032928799536922158
95922638 -0.005149029840203383 0.0033270809787193188
95952400 -0.005089380072637831 0.0033513708770470914
95982162 -0.005033245473257447 0.0033680964570222145
96011924 -0.005888712428526314 0.0029081960342804553
96041686 -0.004941380740807542 0.0034367276450855628
96071448 -0.004890236965496982 0.003457795201916784
96101210 -0.004831224143563856 0.003477534316238887
96130972 -0.005691080837783158 0.003077799446070255
96160734 -0.0048170589543929014 0.003541699485955109
96190496 -0.004837530106313335 0.0035983110164991604
96220258 -0.004837981276959521 0.0036333192587890127
96250020 -0.004834864890278567 0.003677552004800241
96279782 -0.004852436776745044 0.0037106618252660327
96309544 -0.004868931945386315 0.0037411096023621513
96339306 -0.004866421482323615 0.0037852245298611075
96369068 -0.004874950012765162 0.00383298683053845
96398830 -0.0048648143365327525 0.0038763651213013827
96428592 -0.004862016205774439 0.003926599131551355
96458354 -0.0048587782020527255 0.003991120777427237
96488116 -0.004065504166694364 0.004342927283779793
96517878 -0.004831395729759033 0.004111241031019703
96547640 -0.00482396305066057 0.004175627488266416
96577402 -0.004825042545410337 0.004217997535116445
96607164 -0.004800616359552167 0.004278798654915698
96636926 -0.004008652465933864 0.004604908303814947
96666688 -0.004806775179347842 0.0043867824422137444
96696450 -0.004757130262496192 0.004374817160086709
96726212 -0.004725968310423316 0.004344200371388523
96755974 -0.0055476097049068215 0.004007336310290953
96785736 -0.0046462211375544816 0.004311311542504399
96815498 -0.0054631224123393605 0.003983228923431489
96845260 -0.004587621526023398 0.004244935065074645
96875022 -0.004544126122468982 0.004229723999643997
96904784 -0.0045233616547530695 0.004198808311844175
96934546 -0.004429808601424343 0.0041974660353258685
96964308 -0.00447788562858491 0.0041702187828357275
96994070 -0.004504693558520035 0.004152008886908094
97023832 -0.0038042272264309476 0.004377714783247801
97053594 -0.004530688218217345 0.00412501379026351
97083356 -0.0045682207055550384 0.004120033256739916
97113118 -0.005355177570415265 0.003815846048120397
97142880 -0.004587077334337533 0.004090469824249044
97172642 -0.003908714852041422 0.004325869667393423
97202404 -0.0046482807552154295 0.004063135081098598
97232166 -0.004630422977448497 0.004074043158579163
97261928 -0.004643863197557795 0.0040978861862052424
97291690 -0.0046018305879948415 0.004140285788571954
97321452 -0.004582270509287018 0.0041751167873233744
97351214 -0.004579206321134656 0.004204648687543503
97380976 -0.004563431967711842 0.0042374365376492765
97410738 -0.0045335037811391286 0.004279434243096746
97440500 -0.004518230210091136 0.004316058789867588
97470262 -0.0037994779790036866 0.004560835264040673
97500024 -0.00446931875120614 0.004381775273735332
97529786 -0.004503306327680982 0.00441025327239801
97559548 -0.0037729331139239723 0.004662091093243317
97589310 -0.0044702023604966026 0.004500086554012882
97619072 -0.004384482882572266 0.0045576914781571935
97648834 -0.004483902724152755 0.004558182062022935
97678596 -0.004451228709628401 0.004613248523534159
97708358 -0.003740312237835794 0.004834973171443486
97738120 -0.004456751958107436 0.004682929582141235
97767882 -0.004446128515076736 0.004715705973851826
97797644 -0.0051420985222609345 0.004534742628690762
97827406 -0.0043663881311852065 0.004757885114636632
97857168 -0.0042652621168355115 0.004787732782505094
97886930 -0.004186316173502387 0.004809860330133705
97916692 -0.004814368995052198 0.004621864213666021
97946454 -0.004054456128905381 0.00483952908636168
97976216 -0.0046604671241820385 0.004674865539559775
98005978 -0.003284390340538294 0.005023493649285623
98035740 -0.0038613452908830485 0.004882370784026528
98065502 -0.00387042190194567 0.0048967237453724395
98095264 -0.003939313239947555 0.004916278310874412
98125026 -0.003971900869210346 0.004934632991917401
98154788 -0.0033844490735162242 0.005108244475783257
98184550 -0.004113360422096236 0.004971410510954707
98214312 -0.0041818469180746436 0.004990414571073958
98244074 -0.0035749151577428757 0.005169008826097038
98273836 -0.004364054157452028 0.005007624053268645
98303598 -0.004391000632459929 0.005026716320108057
98333360 -0.004474950586347801 0.005038639211265408
98363122 -0.004493860944925306 0.005009772334522109
98392884 -0.004446363554291044 0.0049841522164348895
98422646 -0.004478428937939536 0.004952415254349519
98452408 -0.00446149385142745 0.004928186840609969
98482170 -0.004422447268329666 0.004914201635685049
98511932 -0.004441466863285312 0.004883917246827761
98541694 -0.0037192714015375655 0.005033816091995602
98571456 -0.004385901816941526 0.004834990805392391
98601218 -0.005046619920791859 0.0046225381217567165
98630980 -0.004340315305102085 0.004831544048778787
98660742 -0.004288509993492839 0.0048634161751329235
98690504 -0.003581178994798058 0.005065752053205946
98720266 -0.004875698925380813 0.004772545693978281
98750028 -0.00414398809297565 0.0049737099804931266
98779790 -0.004103584865878956 0.005010163980014287
98809552 -0.004095402286428415 0.005031120385421771
98839314 -0.004009871857909199 0.00507364273462865
98869076 -0.004002778288629333 0.0051022808831490555
98898838 -0.004588522628354679 0.004993772244014294
98928600 -0.003946467078492685 0.005144057929032749
98958362 -0.004622549754643276 0.0050308698125944165
98988124 -0.004025730327452398 0.005175278205895306
99017886 -0.003990811602116652 0.0051930809747885226
99047648 -0.004054428137604271 0.005207410157816488
99077410 -0.004026718004463303 0.005232886764867055
99107172 -0.004044298433978464 0.005244816538058163
99136934 -0.004117431516955112 0.005250528426103009
99166696 -0.0041288779487977986 0.0052678088469022295
99196458 -0.004090887820113478 0.005256291384656817
99226220 -0.004092227138141789 0.005234974931213644
99255982 -0.0041535753374357404 0.005200290156714808
99285744 -0.004111471109328248 0.005180299688038137
99315506 -0.004166817508428422 0.005152408038937119
99345268 -0.004182235739329324 0.005132979866769427
99375030 -0.004139105600749729 0.00512101732681427
99404792 -0.004190081299742031 0.005087873950042118
99434554 -0.004195291740532895 0.005059358383087408
99464316 -0.004102075466785176 0.0050881521170723035
99494078 -0.004074360042013151 0.005138264116891116
99523840 -0.003950630893176443 0.005193394944578433
99553602 -0.0038716934028644396 0.005242897720960356
99583364 -0.004387204590786343 0.005172586469929285
99613126 -0.0030938941239882383 0.005437817637966279
99642888 -0.003636736849423366 0.0053769923756824545
99672650 -0.0035652669567858325 0.005411197631801681
99702412 -0.004052605201033847 0.0053522750270746655
99732174 -0.0034459759100642982 0.0054668962661924185
99761936 -0.0033358678175098816 0.0054607617790541525
99791698 -0.0035879633827357485 0.005407740635605098
99821460 -0.0035788984610566964 0.005392789865553308
99851222 -0.0036691197291723408 0.0053530943834916135
99880984 -0.004226405379478269 0.00523015243559074
99910746 -0.003690231352103514 0.005309183134824349
99940508 -0.004304897833280085 0.005175034220259061
99970270 -0.0037684607441255662 0.00524452032954858
100000032 -0.0038086783102071094 0.005221902333959683
100029794 -0.003805611153647879 0.005219020240261236
100059556 -0.0037806437793482185 0.005223842405433082
100089318 -0.0037603223800103482 0.005244054794732116
100119080 -0.0037542329712403687 0.005234890027862267
100148842 -0.0037421930796425465 0.005245974238933706
100178604 -0.004239258960948609 0.005225375920831196
100208366 -0.0037093071496338767 0.005256186219678942
100238128 -0.0036937345062104613 0.005272343829893278
100267890 -0.0036836052528121293 0.005275432277104605
100297652 -0.0036752797147374546 0.005281064293075999
100327414 -0.0036796404846683706 0.0052800503580801225
100357176 -0.0036904962487663505 0.005276098981511939
100386938 -0.0036864397685325368 0.005284977004022285
100416700 -0.003692269907884183 0.005282042370433941
100446462 -0.0037021215943192987 0.005290152047937266
100476224 -0.0037020549794885096 0.0052956520068297265
100505986 -0.003707047066540701 0.005303048870399474
100535748 -0.003714783866686207 0.005296158890235511
100565510 -0.0037286441577723643 0.005315468002222763
100595272 -0.003775197604662044 0.005355478069691913
100625034 -0.0038200532024404415 0.005393761701211077
100654796 -0.003866629661789015 0.005432972841689082
100684558 -0.003916929248458788 0.005473736920971852
100714320 -0.003968397291426228 0.005512189548244795
100744082 -0.004027613774263983 0.005555533748498289
100773844 -0.004078580548784583 0.005593355925967834
100803606 -0.0041350109465503075 0.005635744386829882
100833368 -0.004189413869732588 0.00567714114080498
100863130 -0.004135322070479789 0.005660686011071596
100892892 -0.004088519292485072 0.005647152258138156
100922654 -0.004037875958283335 0.005625152794670476
100952416 -0.003992187559536389 0.0056141803912316815
100982178 -0.003948521585206575 0.005598200686517016
101011940 -0.003901246687438113 0.005586940183522675
101041702 -0.003848209543549622 0.005569007106471226
101071464 -0.003819745555142401 0.005558963105688396
101101226 -0.00375997020934501 0.005543519794757377
101130988 -0.0037526340220407003 0.005529274325057707
101160750 -0.0037540367419713885 0.005526770069326637
101190512 -0.0037674478073530604 0.005512261395269995
101220274 -0.0037707774015398967 0.005515402003936358
101250036 -0.003768248349333536 0.005508814409448769
101279798 -0.003784360192619226 0.005498017630361362
101309560 -0.003785816383900146 0.005491048402805417
101339322 -0.004132911557634036 0.005471655835688
101369084 -0.003803891998169516 0.005478784552815961
101398846 -0.0037821327428087877 0.005499317248657949
101428608 -0.0037394736888118345 0.0055426579612183145
101458370 -0.003668568831686226 0.005601097365009307
101488132 -0.003609808678883672 0.005651809274331285
101517894 -0.0035465142241327794 0.005702235901213609
101547656 -0.003484352543730094 0.0057479300337868544
101577418 -0.0034193577979808386 0.005799470379548799
101607180 -0.0033506409415734106 0.005853264123591575
101636942 -0.0032868130568979538 0.005902032692777542
101666704 -0.003811659717604927 0.00597844918968082
101696466 -0.003314418606522329 0.005902278351708283
101726228 -0.0034090243676015014 0.005858366922332437
101755990 -0.0035059747781971146 0.005806341563844567
101785752 -0.0035989281953020145 0.005743589949575835
101815514 -0.00368941220403813 0.0056974438347828955
101845276 -0.003780066069405224 0.0056369874384558
101875038 -0.0038657536555426466 0.005576922724978684
101904800 -0.003957001243594127 0.005508429005534977
101934562 -0.004040517562874824 0.005435026253440872
101964324 -0.0040081148332537985 0.0054395884949118385
101994086 -0.003928781193036676 0.005486156860898893
102023848 -0.0038425228676822265 0.00553214532036772
102053610 -0.0037538964760280287 0.005573081593506772
102083372 -0.0036756532215306815 0.005609120933338454
102113134 -0.0035805661868064573 0.005640946547522185
102142896 -0.003500264812187129 0.005670441297579635
102172658 -0.00341566407714697 0.005703453782395538
102202420 -0.0033287843703676944 0.005730117254984165
102232182 -0.003306932672086711 0.005757463403733191
102261944 -0.0033964794021799165 0.0057852153219817674
102291706 -0.003471726200469352 0.005815416959155041
102321468 -0.003569592615161085 0.005838771964668161
102351230 -0.0036573616909161095 0.005868322108759185
102380992 -0.003755982064660697 0.005885876202260571
102410754 -0.0038507064626679484 0.0059078612882527675
102440516 -0.003956365596210994 0.005929505611172341
102470278 -0.004054224482556748 0.00594710095585236
102500040 -0.004161108554495013 0.0059600207183861
102529802 -0.004111467538929052 0.0059853594301658535
102559564 -0.00404722812189264 0.005990547376206405
102589326 -0.004003081517040346 0.00600506927576113
102619088 -0.003945171038646272 0.006018316500630869
102648850 -0.00389399303185807 0.006037234399516489
102678612 -0.0038451799006949984 0.006045136584539892
102708374 -0.00378949368731509 0.00605286136114482
102738136 -0.003740360121349919 0.00605953173094787
102767898 -0.003689803577101542 0.0060695972709214775
102797660 -0.003664106035608033 0.006056328049169108
102827422 -0.003659211268106766 0.006027066592557206
102857184 -0.0036520728567290247 0.006000662428069621
102886946 -0.0036385386101418483 0.005966874634857479
102916708 -0.0036350890722381787 0.005935375902174984
102946470 -0.003619693374228827 0.005908911890544509
102976232 -0.0036092172060984136 0.0058776622596296586
103005994 -0.0036011609859296274 0.0058437663601431785
103035756 -0.0035926593134932936 0.005814875383748695
103065518 -0.0035884321922461356 0.005807664687948463
103095280 -0.00359338271557935 0.00583491491381628
103125042 -0.003600407422297729 0.0058572219763195245
103154804 -0.003603895395258095 0.005879903519515724
103184566 -0.0036048587962387085 0.005904596677872135
103214328 -0.0036073552508391633 0.005937985784587068
103244090 -0.00360911895089308 0.005961205173994431
103273852 -0.003616534918677571 0.0059883008003563
103303614 -0.0036172574215804906 0.006015560385682222
103333376 -0.003627773248012189 0.006036385792317253
103363138 -0.0035342167837921048 0.006023085955519634
103392900 -0.003454935741702089 0.006015680579737016
103422662 -0.003366867439074578 0.0060096041217980395
103452424 -0.0032833417743762545 0.00599868279141839
103482186 -0.003205932126944441 0.005983435883104703
103511948 -0.0031258281946366893 0.005970906819697459
103541710 -0.003044026420066009 0.00595949407189959
103571472 -0.0029707294450218675 0.005938870124806103
103601234 -0.0029053815865150295 0.005927666523105722
103630996 -0.002904032480006904 0.005916849391284755
103660758 -0.0029522376799976666 0.005916262084041347
103690520 -0.0029952805006202795 0.005907513407118883
103720282 -0.0030587765316269777 0.0059075278445669946
103750044 -0.0030983601789461857 0.005893600117151913
103779806 -0.0031478477139377267 0.005890319172869771
103809568 -0.0031920739792976258 0.005872870529743833
103839330 -0.0032428134055709546 0.005863746108701476
103869092 -0.003290760784030439 0.00585372706176263
103898854 -0.003336350495063757 0.005853132781205827
103928616 -0.0033793362568232408 0.00587237490233921
103958378 -0.0034173642632148314 0.005901749642504769
103988140 -0.0034684664227477256 0.0059224433724756305
104017902 -0.00349816240463818 0.005942691470977409
104047664 -0.003542896379677901 0.00596116268700163
104077426 -0.00358829602417083 0.005989735279350741
104107188 -0.00362528310933403 0.006007668415947709
104136950 -0.003676017887956737 0.0060299594172253
104166712 -0.003723053440852796 0.006048553502623267
104196474 -0.00372061507585826 0.006087660770809769
104226236 -0.003705775127328976 0.006133304252628722
104255998 -0.0036941875120803606 0.006174612030469798
104285760 -0.0036775357168923463 0.006209608402439255
104315522 -0.003675260003921672 0.00625585412212028
104345284 -0.003657568383500557 0.006296210199121143
104375046 -0.0036456653193236346 0.0063426518839758165
104404808 -0.003632688577776435 0.006378307967804438
104434570 -0.0036144212579180043 0.0064245994599677345
104464332 -0.003606982978938564 0.006402335205455389
104494094 -0.003604237967413681 0.006346313992744066
104523856 -0.0036018355682445632 0.006283425929288493
104553618 -0.003603535500991288 0.00622693593918966
104583380 -0.0035918927052843467 0.006174933938155361
104613142 -0.0035818331664841663 0.006107832197526401
104642904 -0.0035826312561802755 0.006061549082652497
104672666 -0.00357993875767714 0.006017337485402724
104702428 -0.0035702636332644692 0.005948601503223833
104732190 -0.003556696915260933 0.005941775271903201
104761952 -0.003533317158764653 0.006009746838205461
104791714 -0.0035280090854873914 0.006080129717346308
104821476 -0.003500273026599645 0.006149015898830204
104851238 -0.0034789662145476123 0.006219992514313711
104881000 -0.003453842820837402 0.006287142430473938
104910762 -0.0034248413817483943 0.006355183518062515
104940524 -0.0034140098716954346 0.00643907774036277
104970286 -0.00338800437361711 0.006508829016704068
105000048 -0.003363394573191491 0.006582351803710483
