# HZ S RI R 50
90000000 0.0003089955094737894 0.004780300374965755
90029762 0.0003523638891367028 0.004800140068918319
90059524 0.00015694689918596398 0.004799276165824237
90089286 0.0002972766667648709 0.004836102637915109
90119048 0.00014159020415862412 0.004840333143396141
90148810 0.0002820904645070497 0.004866927300152456
90178572 0.00022587031831097033 0.004881287319866704
90208334 0.0003124665790400652 0.004908373518725608
90238096 0.00011888959847764951 0.004907433724473387
90267858 0.00025410121277621425 0.004938869219656989
90297620 0.00026811648185798097 0.004902333741824111
90327382 0.000343138397508418 0.004853011043897272
90357144 0.0003248134792995154 0.0047959762859529935
90386906 0.00039384670853707574 0.004737599996858898
90416668 0.00023842871890187927 0.00467180971336933
90446430 0.0004002129763429452 0.004624578377316463
90476192 0.0004696123102284565 0.0045792954185848115
90505954 0.0005381103044576267 0.004516870445359765
90535716 0.000472667437160302 0.004463541137663399
90565478 0.0005471107184640108 0.00442672921717143
90595240 0.0005536428871500914 0.004415975205180881
90625002 0.000596028642422443 0.004403787207900073
90654764 0.0006871358969228561 0.004392458015120882
90684526 0.0007272247753433417 0.00437692654350785
90714288 0.000737051111415216 0.004363440891756488
90744050 0.0007819333335997102 0.004348946549026497
90773812 0.0008681880310025992 0.0043314030672174245
90803574 0.0008761676692217134 0.004312203088817753
90833336 0.0009586140537491613 0.004296662227621068
90863098 0.0009858056360326011 0.0042570449613541315
90892860 0.0009801926077549021 0.004194694293759712
90922622 0.0010420926882686139 0.004161650915515097
90952384 0.0010669421603358461 0.0041150099973390674
90982146 0.001053633141251469 0.004067307569082128
91011908 0.0009438027915503231 0.00405503010192837
91041670 0.001109426471942502 0.003979629276810449
91071432 0.0008268564329545044 0.003980302131905956
91101194 0.0010443347028921926 0.003888927956284214
91130956 0.0011970299805437188 0.003864008046182657
91160718 0.0010770161697086509 0.003882735260860776
91190480 0.0011596878759183844 0.003877396249473116
91220242 0.0010549554894989943 0.0038774068265366754
91250004 0.0011602852776461444 0.0038755991196493516
91279766 0.001055296913479172 0.003876177575412709
91309528 0.0011935928067343775 0.0038728032903376348
91339290 0.001159605007574023 0.0038667243010458087
91369052 0.001188381006443137 0.0038624294449119074
91398814 0.0010604450071429916 0.003841983735273859
91428576 0.0011709744382830088 0.003794400355057648
91458338 0.0012134538306133522 0.0037440548243495094
91488100 0.0011979393317295161 0.0036913677481592608
91517862 0.0010823958369110484 0.0036562196353948913
91547624 0.0012504819895202523 0.003586720805077241
91577386 0.0012651798428551318 0.003534417759828629
91607148 0.0012431440575296682 0.003475413511390606
91636910 0.0012489014201217722 0.0034191530323748314
91666672 0.0012931506717134662 0.0033685850548443416
91696434 0.0013244600177644312 0.0033121168666658154
91726196 0.0014158763070257238 0.0032548860671800456
91755958 0.00147138576642871 0.00319894699072351
91785720 0.0014350202629264508 0.0031465630810702753
91815482 0.0015899779713536204 0.0030710657032072372
91845244 0.0016465373166173758 0.003007486907404367
91875006 0.0016740388253164787 0.0029310944509593996
91904768 0.0016500837179911727 0.0028594983704843353
91934530 0.0017640868613653308 0.0027850154768044016
91964292 0.001795527548089708 0.0027366668138438135
91994054 0.001692706127441305 0.0027393083679315105
92023816 0.0017471516673196145 0.0026669899949226324
92053578 0.0018288474294339697 0.002598614338253661
92083340 0.0018418684219966598 0.002550408574515775
92113102 0.0018723498694608052 0.0024925469742010558
92142864 0.0018615754229609116 0.0024283366420826853
92172626 0.0018725779407813348 0.002389231050616299
92202388 0.0018050872217427762 0.002350316710333625
92232150 0.0018579568104443442 0.0022605747616511436
92261912 0.0017870266485061684 0.0021723604616212472
92291674 0.0018113765299898157 0.002083422752218611
92321436 0.001765373793060491 0.0020005897311561886
92351198 0.0017451298724864887 0.0019079092862049672
92380960 0.0016953846927455197 0.0018416822550070121
92410722 0.0016685236778436526 0.0017415300693909373
92440484 0.0016413878353089364 0.001652523530669748
92470246 0.0016144329692776777 0.0015584348584197568
92500008 0.0015584161621301886 0.001474373153486128
92529770 0.0015450956814277764 0.0014073473820335686
92559532 0.0015343278737044528 0.0013269502125761523
92589294 0.0015173840699478493 0.0012618025204311717
92619056 0.0015021024579077234 0.0011735322405709238
92648818 0.001491509407852279 0.0011053841935919982
92678580 0.0014500973972869139 0.0010316673064050344
92708342 0.0014288297956172376 0.000945458796859229
92738104 0.0014021881066746023 0.0008611341588282474
92767866 0.0013670012793129658 0.0007902641726382422
92797628 0.0013220098579587653 0.0006797459978371738
92827390 0.00129235774755952 0.0005881014505131339
92857152 0.0012648739266705288 0.0004771946136716474
92886914 0.0012027534197391965 0.0004063953552121538
92916676 0.001145137039284122 0.0003061224976153979
92946438 0.0010923600920964864 0.00021227264584291477
92976200 0.0010293786996213505 9.60986517265294e-05
93005962 0.0009640547225458001 -6.468586286529864e-07
93035724 0.0008970106375705413 -7.837955094022738e-05
93065486 0.0008048548558396638 -0.00019170000724010768
93095248 0.000700366485028032 -0.0002886338221033527
93125010 0.0006155597743788773 -0.00038097126105886986
93154772 0.0005060862912327318 -0.0004618230394406948
93184534 0.0004420622728381621 -0.0005753795889599996
93214296 0.00030317570479713 -0.0006315790601891708
93244058 0.0002267667794338709 -0.0007278625171254263
93273820 6.304642124531872e-05 -0.0007594335220871149
93303582 -6.304253193012786e-05 -0.0008321943859713715
93333344 -0.00020072382172411793 -0.0008740249283487243
93363106 -0.00031599042526460715 -0.0009303748517940816
93392868 -0.0004133237003683026 -0.0009878927016818528
93422630 -0.0005373936341464737 -0.0010460196438214601
93452392 -0.0006753778684742102 -0.0010402099749169567
93482154 -0.0007587480227870576 -0.0011110200681741574
93511916 -0.0008940661720520888 -0.0011551548790240905
93541678 -0.0010402612047367475 -0.0011599344432987016
93571440 -0.0011369644872868904 -0.0012261497118262973
93601202 -0.0012642653862306647 -0.0012548087849038555
93630964 -0.0013990129397536963 -0.0012656637033894762
93660726 -0.0015257530388146383 -0.001296110484160302
93690488 -0.0016986983317153748 -0.0012413788031107491
93720250 -0.0018335413649984064 -0.0012524088144972466
93750012 -0.001990084041257026 -0.0012338339483419696
93779774 -0.002148407332195174 -0.0011694001399180642
93809536 -0.002261373415864462 -0.0012428813240908363
93839298 -0.0024194034781920195 -0.001116988926837453
93869060 -0.0025648628023640582 -0.0010465104951115811
93898822 -0.002692633382125505 -0.0009438906788203417
93928584 -0.002819938340751575 -0.0009455729152604091
93958346 -0.0029351605172885345 -0.0008659976870479256
93988108 -0.0030456844390312687 -0.0009488090211331616
94017870 -0.003186489759752094 -0.0008032474573039091
94047632 -0.003300197860678291 -0.0008342501298870453
94077394 -0.0033924277213186723 -0.0006630513546754636
94107156 -0.0034986281138128872 -0.0006188316719577109
94136918 -0.0035806332308909797 -0.0005132927361919898
94166680 -0.003689046005860536 -0.0004726379523566408
94196442 -0.003987469764715852 -0.0004672690721747939
94226204 -0.004321193380391535 -0.0005839485249177113
94255966 -0.004615819055291167 -0.000433654543254572
94285728 -0.005022652184302371 -0.00048726621888538067
94315490 -0.005446534865209659 -0.0005248720608573304
94345252 -0.0058995028655115895 -0.0005025977347190721
94375014 -0.00644278960123609 -0.0006410098326748429
94404776 -0.0070439178298257075 -0.0006914280461804307
94434538 -0.00774639049504686 -0.0008879089983299353
94464300 -0.007678664798757371 -0.0007513668685085664
94494062 -0.007237479264917495 -0.00040777062116915236
94523824 -0.006836544203638565 -0.00016381144474138576
94553586 -0.006494490986295719 7.3047568019884945e-06
94583348 -0.006158830612546306 0.00025240645616358455
94613110 -0.0058943815002142925 0.00035039222036406303
94642872 -0.005619038072021838 0.00048576119984088226
94672634 -0.005365088929763069 0.0006234875584868344
94702396 -0.005128711722182856 0.0007321405560414445
94732158 -0.005005290412058149 0.0007701776271445191
94761920 -0.005001193940684436 0.0008739653406639497
94791682 -0.005027159250670385 0.000899767378121939
94821444 -0.004975478292356585 0.0010442256888401995
94851206 -0.005020917500341745 0.0010547501718466965
94880968 -0.004955029387673032 0.001220660539020702
94910730 -0.004945614187850006 0.0012835349800834968
94940492 -0.0049087546843743415 0.0013711339602977116
94970254 -0.004949397263785337 0.0013899561862261347
95000016 -0.004885231959901624 0.0015054462190130808
95029778 -0.0049644533386831976 0.0015319963196283514
95059540 -0.0049777437497904725 0.001617913518949307
95089302 -0.005026904926115152 0.00168529464184356
95119064 -0.005047564381173816 0.0017616744048287525
95148826 -0.005157191920126411 0.0017579143644841139
95178588 -0.005161742704521945 0.0018573182038558707
95208350 -0.005204352801271683 0.0019069266278290604
95238112 -0.0052519648095622805 0.0019678520312446995
95267874 -0.00530091606020421 0.002021163353215882
95297636 -0.005297419478419627 0.0020807726722442865
95327398 -0.0053133335595828245 0.0021414225555714834
95357160 -0.005335955023686715 0.002197641778837336
95386922 -0.005347981850714108 0.002262966892731428
95416684 -0.0053442144674270995 0.002322036134831304
95446446 -0.005350394701262828 0.0023682639724821627
95476208 -0.005368465803567182 0.0024335404487887454
95505970 -0.005373877735276488 0.002502615535948962
95535732 -0.005370951883819138 0.002548311360304628
95565494 -0.00537576870263351 0.0026040842352968003
95595256 -0.005368529315436721 0.0026976406879232135
95625018 -0.005354696360034984 0.0027609755291233126
95654780 -0.005339895303455012 0.00283428530621769
95684542 -0.005325651661959968 0.0029189787675525454
95714304 -0.005332965813032325 0.0029898615796824166
95744066 -0.005294206361655323 0.003074906886728151
95773828 -0.005294508847447026 0.0031364545057884223
95803590 -0.00526792559023664 0.0032212649664519386
95833352 -0.005255500307071537 0.0032775339867635723
95863114 -0.005195468619827551 0.0033183934303553774
95892876 -0.005138532192794601 0.0033467977964192095
95922638 -0.005100555682692744 0.0033768493339766544
95952400 -0.005046335725306178 0.003406276329634467
95982162 -0.004993121734029094 0.003434922940445573
96011924 -0.005840310047748737 0.0029539419843692214
96041686 -0.004893426396404865 0.0034778994897805577
96071448 -0.004846704531876775 0.003490679568136419
96101210 -0.004808103631531096 0.003523125445769048
96130972 -0.005657885844617154 0.0031045183470099287
96160734 -0.00478956281358139 0.00357750652280636
96190496 -0.004901409358765912 0.0036214745407002666
96220258 -0.004810521190944208 0.0036615169675354954
96250020 -0.0047065362366338626 0.003736867461989328
96279782 -0.004832322286013514 0.0037348461874845734
96309544 -0.00483891035676159 0.003772460599320028
96339306 -0.00502940399649151 0.0038014520881391707
96369068 -0.004735718598896602 0.003885138769305769
96398830 -0.004943675080120478 0.0038762834360735704
96428592 -0.004836314684224007 0.0039573949211155444
96458354 -0.004844272484277616 0.0040204866241501
96488116 -0.004044504723178091 0.004351449159125606
96517878 -0.004808570149158411 0.004131820493456174
96547640 -0.004807518709360262 0.004187647915186962
96577402 -0.004810606748239074 0.004252207583574029
96607164 -0.004786322242839655 0.004306748578702861
96636926 -0.003991816802097905 0.0046295894046339955
96666688 -0.00478235181821205 0.004426183975436487
96696450 -0.004640661914791595 0.0044157619883798405
96726212 -0.004708750659928622 0.004373936175439861
96755974 -0.005542103979034939 0.0040450874189929655
96785736 -0.004627700064725731 0.004329485643398832
96815498 -0.005454841600671335 0.004006316900914356
96845260 -0.004568329470376691 0.004284090157981639
96875022 -0.004530592713110551 0.004259062567047069
96904784 -0.004517837563147493 0.004230978399933117
96934546 -0.004430868401531755 0.004224701535054473
96964308 -0.0044615607864768895 0.004194784171111142
96994070 -0.004485289190260585 0.004185112538032166
97023832 -0.0037913728090898905 0.004402584673412217
97053594 -0.004532509624546857 0.004164945428428941
97083356 -0.004566279604156305 0.0041429652037329335
97113118 -0.0053465932436157744 0.003845497033995482
97142880 -0.00458657437594609 0.004127740754096315
97172642 -0.003907071406831909 0.00435335480322649
97202404 -0.004645769859256495 0.004092289241387134
97232166 -0.004637458462046757 0.004091868738576962
97261928 -0.004636319393973247 0.004135288308071804
97291690 -0.004607313139521846 0.004176795964364609
97321452 -0.00458776499610701 0.004201378863689315
97351214 -0.004588299098901543 0.004231709921931902
97380976 -0.004569615356998419 0.004274706106843179
97410738 -0.00452982875110769 0.00432064051618498
97440500 -0.004518043425582241 0.004345863380333016
97470262 -0.0037973644039292786 0.0045966166392133415
97500024 -0.004484364573602648 0.004416498132392427
97529786 -0.004497306240761346 0.004443833131961342
97559548 -0.0037678508184343447 0.004692229787248012
97589310 -0.00446432934080346 0.004532787294643043
97619072 -0.004390207643298448 0.004585161491344067
97648834 -0.004489042347306676 0.004603863332266685
97678596 -0.004457843559903635 0.004646646172957299
97708358 -0.0037428920007293236 0.00486128587245531
97738120 -0.004448650362581677 0.00472841466800843
97767882 -0.004442621158219579 0.004758342324712706
97797644 -0.005141355860622233 0.0045797547231697265
97827406 -0.004361410661953111 0.004796320443114501
97857168 -0.004256917841078962 0.004827435615269632
97886930 -0.004183701508234539 0.004841161179320234
97916692 -0.004812348229837926 0.0046765273928272896
97946454 -0.004053357948143012 0.004882472358864015
97976216 -0.004660217772252747 0.00471851647529663
98005978 -0.0032833019148894894 0.005053214217096512
98035740 -0.003861444294650806 0.004919139262586949
98065502 -0.003867849827219132 0.004935504987925762
98095264 -0.0039353612792483094 0.004947481405472325
98125026 -0.003965303366263058 0.004981339576475723
98154788 -0.0033776807219724715 0.005147482348580669
98184550 -0.004102256700707833 0.005019265179343704
98214312 -0.00417647213670678 0.005028744315532008
98244074 -0.003565101859124354 0.005213278246364167
98273836 -0.004351228645529865 0.0050508370931108505
98303598 -0.004380003667197478 0.005081690666374523
98333360 -0.004464057839570087 0.005095943498339766
98363122 -0.004492903131819588 0.005060116212089242
98392884 -0.004439081737686041 0.005036259245100458
98422646 -0.00447226209683886 0.005005796371427978
98452408 -0.004460904646291345 0.004976000355374615
98482170 -0.004400456042252765 0.0049633395355747284
98511932 -0.004436192536298334 0.004926353980505114
98541694 -0.003703607080868756 0.0050815225069937575
98571456 -0.004385909968885148 0.004885974284871208
98601218 -0.005036108607035075 0.004674770744034723
98630980 -0.004325175990834266 0.004874864707474326
98660742 -0.004281124229311662 0.004908286696570027
98690504 -0.0035618096414645564 0.005107525646909776
98720266 -0.0048496771938198215 0.004834287874096004
98750028 -0.004136750299659245 0.005019718079355939
98779790 -0.004090553460152872 0.005057137638999491
98809552 -0.0040849711173035095 0.005082751430287536
98839314 -0.003993328969143206 0.005123363905918712
98869076 -0.00398684732750131 0.005146517365679647
98898838 -0.004563807926523189 0.005060844875909238
98928600 -0.00392913681248787 0.005191610487574145
98958362 -0.004606044470260243 0.005081535209546666
98988124 -0.004001959468710766 0.005221914181824901
99017886 -0.003973383383795725 0.005243402565070872
99047648 -0.004031761947608478 0.005253369613186727
99077410 -0.0039971783273540454 0.005277911029998902
99107172 -0.004019973023020859 0.005296062325384755
99136934 -0.0040931804588717775 0.0053029221196067705
99166696 -0.004103620642972581 0.005318413307915675
99196458 -0.004060108388305351 0.005302834744826637
99226220 -0.004074233871203555 0.0052857327181682545
99255982 -0.00412993229546139 0.0052557151422991605
99285744 -0.00408373094242982 0.005236429379645809
99315506 -0.004145582564278103 0.005209415861419696
99345268 -0.0041472162625233585 0.005174813700582251
99375030 -0.004111210435410443 0.0051646366940959
99404792 -0.004159792695799151 0.005135504963926868
99434554 -0.004619962019241657 0.0050687704747611395
99464316 -0.004078524978092335 0.005149050591734897
99494078 -0.004042449005396534 0.005187677487034514
99523840 -0.003917837765864101 0.005238320778835332
99553602 -0.0038398741558992766 0.005293542402925796
99583364 -0.004356288382969839 0.0052240117575793705
99613126 -0.0030643138723106993 0.005478388450142009
99642888 -0.0036146112935390197 0.005422342748192822
99672650 -0.003528278565644008 0.005455550423592218
99702412 -0.004023067179681897 0.005404674603664349
99732174 -0.0034118808557495766 0.005509936060251219
99761936 -0.0037017441340719184 0.0054967879559668816
99791698 -0.003543448332198932 0.005452256207224603
99821460 -0.0035399791958240943 0.0054265095029267275
99851222 -0.0036348831030185696 0.0053958014979334215
99880984 -0.004193335680680899 0.005269800702266381
99910746 -0.0036510356292907657 0.005349269997687499
99940508 -0.004268994120446727 0.00522204922981428
99970270 -0.003730795987216312 0.005283510273219416
100000032 -0.0037691447337853895 0.005255836394964127
100029794 -0.0037523145437755394 0.0052672601642355325
100059556 -0.003730930514649532 0.005261259667466794
100089318 -0.003725439431527038 0.005275884287515462
100119080 -0.003708209439677789 0.005271006657172859
100148842 -0.0036971647248208715 0.005284748344965171
100178604 -0.0036844374760828347 0.005295179732294576
100208366 -0.0036659339493374764 0.005298923244857017
100238128 -0.0036482339639539734 0.005299913328745165
100267890 -0.0036380254152831516 0.00530466163195685
100297652 -0.0036365565538629785 0.005307083823008045
100327414 -0.003636866876297393 0.005311838984339699
100357176 -0.0036329575689152942 0.005314280666955539
100386938 -0.003645419589575804 0.005316502429292754
100416700 -0.0036503751918218344 0.005320807718645638
100446462 -0.003654138363530894 0.0053223560850442974
100476224 -0.0036499681951251265 0.005328847634281669
100505986 -0.003667517099123411 0.005323761161213213
100535748 -0.003671448827802454 0.0053306050014309495
100565510 -0.0036829742568210487 0.005346031172111444
100595272 -0.0037238486601734954 0.005385254595326635
100625034 -0.003774161506471634 0.005422557619848792
100654796 -0.0038218320414369535 0.005459826035628763
100684558 -0.003874900648196093 0.005506347789565528
100714320 -0.003921136440306419 0.005541787095922038
100744082 -0.003970936733457378 0.005578831169578112
100773844 -0.00403011385338502 0.0056252249887270515
100803606 -0.00407573611543418 0.005661547820757782
100833368 -0.004133728355590301 0.005704206421549392
100863130 -0.004077951457364759 0.005685920182847411
100892892 -0.0040337313419288425 0.005667935201300431
100922654 -0.003987193723135443 0.00565174242315096
100952416 -0.003943535734646275 0.005639113323742332
100982178 -0.003898876577336953 0.005619711289772376
101011940 -0.003846618970593898 0.005613001687929021
101041702 -0.0038055526838107682 0.005593600741305235
101071464 -0.0037631429342872306 0.005574410634467048
101101226 -0.0037041725430018765 0.005566515446062098
101130988 -0.003697449693781999 0.0055623210518416745
101160750 -0.003705811092365538 0.005549153304525554
101190512 -0.00371684340136503 0.005535809609542973
101220274 -0.0037178589030056426 0.005534735572924838
101250036 -0.0037184696790127886 0.005526020248149665
101279798 -0.00373812582135482 0.005513843239788784
101309560 -0.0037391925980162157 0.005508674925285434
101339322 -0.003751537301060978 0.005501738487561918
101369084 -0.003761269093851293 0.005495132826713832
101398846 -0.0037431517966038112 0.005500383271909298
101428608 -0.003685166710884892 0.005553516910513051
101458370 -0.0036160503840899564 0.005613976873364167
101488132 -0.0035676395634813124 0.005657650712854303
101517894 -0.003499492038937233 0.0057130540889880465
101547656 -0.0034393433863719033 0.005761993746718025
101577418 -0.0033685502948869366 0.005811864762418821
101607180 -0.0033006006891473467 0.005861532713629828
101636942 -0.003235335566489016 0.005914652860241985
101666704 -0.0031735000508623834 0.005957441950777029
101696466 -0.0032711329229889127 0.005908073706003587
101726228 -0.003362259654493661 0.005859951480562084
101755990 -0.0034609525175019243 0.00581489650738813
101785752 -0.003558440923029159 0.005763243009635016
101815514 -0.003647528544087267 0.005705113394718445
101845276 -0.003739697191636506 0.005648884186814864
101875038 -0.003821435738106229 0.0055909805576650545
101904800 -0.003909287697557575 0.005517773610922428
101934562 -0.003995403360891811 0.005452754493539668
101964324 -0.003960609365620631 0.005451504075724667
101994086 -0.0038805532487688325 0.005495987538148525
102023848 -0.003802929320321736 0.005535347811909
102053610 -0.003713428403694841 0.0055760990604856306
102083372 -0.0036292543154839824 0.005607949079109917
102113134 -0.003545357677721305 0.0056386721175540715
102142896 -0.0034620541949761242 0.005667703059469571
102172658 -0.003371164784748997 0.005695650102340091
102202420 -0.003289077529473331 0.005715630780943266
102232182 -0.003263204765161903 0.005749392444266928
102261944 -0.0033423734359697157 0.00577881114946965
102291706 -0.003433516103719316 0.005801370143606561
102321468 -0.0035234906522319726 0.005839394401164932
102351230 -0.0036158110924431274 0.005860942354433949
102380992 -0.0037002616278437954 0.005887946362811693
102410754 -0.00380296192148491 0.005909337733033445
102440516 -0.003907147127762732 0.005922289916886763
102470278 -0.0040042998051397945 0.005939225931591755
102500040 -0.004116386071966886 0.0059493293754196075
102529802 -0.004070231664349807 0.005974565845385026
102559564 -0.004010539837565593 0.005988989356561531
102589326 -0.003958898022701068 0.005998407590861774
102619088 -0.0038985707793866287 0.006009091242593171
102648850 -0.0038528196290787266 0.006018226903505648
102678612 -0.003801405349536465 0.00603078843204783
102708374 -0.0037468540280491255 0.006040247700561284
102738136 -0.003692908465274555 0.0060536341546534485
102767898 -0.0036441264806302094 0.006059113166853503
102797660 -0.0036107829956665157 0.006047994240488327
102827422 -0.003612709761268075 0.006017019521649719
102857184 -0.0036036314372325565 0.005983502886619847
102886946 -0.0035961853054330573 0.0059557061878199435
102916708 -0.0035814768778444526 0.005922372471611221
102946470 -0.0035771097833661824 0.00589430268915051
102976232 -0.003564601168016381 0.0058647888645109916
103005994 -0.003554842486030464 0.005832266225820937
103035756 -0.0035478982228575925 0.00581020016813816
103065518 -0.0035431587386002467 0.005800146604901794
103095280 -0.0035467870097612396 0.005819269683628374
103125042 -0.0035512828753865478 0.005845089586177004
103154804 -0.0035559742574978685 0.005868633883315825
103184566 -0.0035637063306047396 0.005892343978275761
103214328 -0.0035674404269482305 0.005914650922052159
103244090 -0.003564865746980023 0.005942093425062838
103273852 -0.00357547282869135 0.005963327377340572
103303614 -0.0035709757545404758 0.00599469582143529
103333376 -0.0035845857786797296 0.0060240822042824
103363138 -0.0035023121061252926 0.006012587481441459
103392900 -0.0034049124945895294 0.005999984306219969
103422662 -0.0033268255449567254 0.005988179048294936
103452424 -0.003242326142949917 0.0059755845151846
103482186 -0.003170329309355756 0.005973787496250038
103511948 -0.0030895636983516005 0.005951039630311557
103541710 -0.003008931957095799 0.005938100674528587
103571472 -0.0029352237125236536 0.005923944627925649
103601234 -0.002860177266451297 0.005904490044658076
103630996 -0.002865133758830817 0.005908196108384433
103660758 -0.002911079963453618 0.005894183356411688
103690520 -0.002955386001660128 0.005890029515381534
103720282 -0.0030088410644755013 0.005882855402409577
103750044 -0.0030589068918699153 0.005875146130648345
103779806 -0.0031079327171551 0.005868624932803205
103809568 -0.003153164235025102 0.005858899405301018
103839330 -0.0032042496731876 0.0058500664252076175
103869092 -0.00324527639089992 0.005838829508695929
103898854 -0.0033000088137928947 0.005840454153503701
103928616 -0.0033440334258075617 0.005856683478984385
103958378 -0.0033739727803864016 0.005881615271529012
103988140 -0.0034156536019635457 0.005901666343794073
104017902 -0.0034554681437433594 0.005928258529631866
104047664 -0.0035014652867079504 0.005945325848020728
104077426 -0.0035446034593645897 0.005969991536591768
104107188 -0.003587398951179489 0.005989321619600654
104136950 -0.003634085887203311 0.0060131230150134414
104166712 -0.0036788268024349146 0.006031026789640836
104196474 -0.0036696419102310303 0.006081758864909853
104226236 -0.003658448833987487 0.0061136390561054915
104255998 -0.0036424833471005386 0.006157019841851691
104285760 -0.003631627923640341 0.006206089080753344
104315522 -0.00362363654676952 0.006244001669471137
104345284 -0.003612719253653339 0.006285005172470663
104375046 -0.0035980990164076907 0.00632811731248387
104404808 -0.0035815831483234895 0.006373633206798303
104434570 -0.003566577044294274 0.006414720358766248
104464332 -0.003562643546317057 0.006388554245083664
104494094 -0.0035552794735135315 0.0063315217003848045
104523856 -0.00355105522772386 0.0062762477983788305
104553618 -0.0035502769789208396 0.006220166262241941
104583380 -0.0035418997360241538 0.006161771037476354
104613142 -0.003544529366757033 0.006104530082780132
104642904 -0.003536903615438199 0.006057022245516914
104672666 -0.0035305618075722567 0.006000058864033151
104702428 -0.003532969291081009 0.005950700181399979
104732190 -0.0035133191456316218 0.005934769153290502
104761952 -0.0034900241236785075 0.006004507846310361
104791714 -0.003476308374143489 0.006075425846577663
104821476 -0.0034585078912077734 0.0061387872893923865
104851238 -0.0034354362290163276 0.0062124586448687215
104881000 -0.00342161047172929 0.006279679921771456
104910762 -0.003387363115486221 0.006355860331507327
104940524 -0.0033698102916462137 0.0064271224400210564
104970286 -0.0033458301865493412 0.006493920881062569
105000048 -0.003335269000341442 0.006571901134781558
