# HZ S RI R 50
90000000 0.00034254369423537324 0.004750051608469362
90029762 0.0003840184595467957 0.004772062392772638
90059524 0.00018684623204973767 0.004778414398556185
90089286 0.0003331442790441459 0.004805179812816703
90119048 0.0001799656218734955 0.004811395324704115
90148810 0.00031897424166384326 0.004842580768878472
90178572 0.00030856968871867364 0.004853148778078446
90208334 0.00035008601280436466 0.004873105233606842
90238096 0.00015499693764731758 0.004875311559301557
90267858 0.00029132626654193084 0.004904964005949762
90297620 0.00030431757227630314 0.00487046505505795
90327382 0.0003774013276482226 0.0048188632389961905
90357144 0.00036029146834323073 0.004757196560789134
90386906 0.000427790947280044 0.004701495849687529
90416668 0.0002726890288857491 0.004630436446426023
90446430 0.00043887085966865907 0.004589589868384571
90476192 0.0005020944329467051 0.004539812640092908
90505954 0.0005287514831617789 0.004484161651970788
90535716 0.0005101778826652122 0.004421466929953058
90565478 0.0005810567317427922 0.0043932980987261075
90595240 0.0005864508294696478 0.004372852670919335
90625002 0.0006326742560976738 0.004360188260280252
90654764 0.0007182785356985324 0.004350775362014597
90684526 0.0007655782078207353 0.0043395528010873475
90714288 0.0007652661349602408 0.004316644746324767
90744050 0.0008160580311325537 0.004301361582734123
90773812 0.0008997368495682974 0.0042834380458088
90803574 0.0009113692378981682 0.004265834793159426
90833336 0.0009980473951451555 0.004245979721695455
90863098 0.0010307800739154443 0.00419803633538024
90892860 0.001010062615008866 0.0041546705862831575
90922622 0.0010726984389141199 0.004107158103150506
90952384 0.0010989774519375925 0.004059757651631914
90982146 0.0010844170492876532 0.004016299177757505
91011908 0.0011445852505311755 0.003969954209210659
91041670 0.0011383577971110566 0.0039193804654316265
91071432 0.001159335765005149 0.0038780237763412716
91101194 0.0010780762189909552 0.0038274957922372044
91130956 0.0012285790975474576 0.0038066606837173678
91160718 0.0011940786254998898 0.003809888563374118
91190480 0.0011937749012532345 0.003807692483136633
91220242 0.001090424923256472 0.0038107660082781335
91250004 0.0011913823985368478 0.0038053912730764638
91279766 0.001090973730848246 0.0038051943945116677
91309528 0.001225672397403225 0.003798520957453121
91339290 0.0011901931137299991 0.0037988299277651088
91369052 0.001223519319416043 0.0037878525811481712
91398814 0.0010953032816416407 0.003769210293998851
91428576 0.0012080966236690735 0.0037128573878723848
91458338 0.0012415923959075707 0.0036598331043311053
91488100 0.0012238713640164705 0.0036106612664974485
91517862 0.001239742646896943 0.003554666266185787
91547624 0.00128292816143898 0.003499455964436989
91577386 0.001289066023803472 0.003448772485008402
91607148 0.0012669486313623929 0.003392367321103983
91636910 0.001285543067912358 0.003331800182264887
91666672 0.0013213581471551831 0.003274678904211488
91696434 0.0013531227195426054 0.003220245493211252
91726196 0.0014419772286959943 0.0031576220840797012
91755958 0.0015023547364308378 0.003098733071403453
91785720 0.0015285296218649229 0.00303506253738613
91815482 0.001608679579087647 0.0029649160519442854
91845244 0.0016583523632824693 0.0028943429534257566
91875006 0.0016728703821138366 0.0028301663900177692
91904768 0.0016532583527762035 0.00276339271774966
91934530 0.0017679540697604632 0.002683471125695399
91964292 0.0017885746639213695 0.0026246183813764495
91994054 0.0018309296034191166 0.0025694369534334507
92023816 0.0017481914933740487 0.002541600035315045
92053578 0.0018209277671712883 0.0024755161125511915
92083340 0.0018294511361630669 0.0024236400119018817
92113102 0.001861087579664732 0.002362222166045308
92142864 0.0018378110633798278 0.002313403747632938
92172626 0.0018592942153417798 0.0022481113091686934
92202388 0.0017968839131409233 0.002205225079768008
92232150 0.0018465436367077557 0.0021228803504891817
92261912 0.0017596435793424613 0.0020455519208290866
92291674 0.0017950710125994266 0.0019380425554872047
92321436 0.0017326783842698922 0.0018569292307142858
92351198 0.0017172381721977737 0.0017667385085768166
92380960 0.0016678846876964205 0.0016865664206708777
92410722 0.0016262508457469157 0.0015988089091014677
92440484 0.001599448627102018 0.001505853663830992
92470246 0.0015526078841146993 0.0014229274981609262
92500008 0.0015058065678009715 0.0013339364043778892
92529770 0.0014874222591716088 0.0012628906071575979
92559532 0.0014789913194050393 0.0011863742612925519
92589294 0.0014461286212913975 0.001109698271935891
92619056 0.001431988084594035 0.0010361878412220497
92648818 0.0014066482034046919 0.0009538088299346846
92678580 0.0013811849243962598 0.0008795634569489383
92708342 0.0013454621108089546 0.00079230950945923
92738104 0.0013120426777536213 0.0007024362717506289
92767866 0.0012563635527720431 0.0006180509623477748
92797628 0.0012318214998838432 0.0005268969003719888
92827390 0.0011829276345141702 0.0004249545309610535
92857152 0.0011284819554648897 0.0003288925042722529
92886914 0.001067799334253858 0.00025447107339523
92916676 0.0009934600098979068 0.00015089680148126504
92946438 0.0009506300030382442 4.460225010013477e-05
92976200 0.0008795442041894514 -4.008922456853503e-05
93005962 0.0008170171494020713 -0.00014223672933129922
93035724 0.0007136948907279558 -0.00024090171173863425
93065486 0.0006645551161760882 -0.00033423243207754525
93095248 0.0005169934047406154 -0.0004036658730425795
93125010 0.00044014458021721835 -0.0005005664778046183
93154772 0.000315671822483928 -0.0005672112882879883
93184534 0.00023830232996750254 -0.0006815669530362831
93214296 9.007089113261527e-05 -0.000700343268559959
93244058 7.972893123841626e-06 -0.0008235529719342379
93273820 -0.00016330607707834547 -0.0008221838251329212
93303582 -0.00028936685381266683 -0.0008527184092731128
93333344 -0.0004358939157186833 -0.0008846899464272643
93363106 -0.0005331834913093938 -0.0009564809056012098
93392868 -0.0006570882770199681 -0.0010126474667405817
93422630 -0.0007767671221327437 -0.0010510368470664085
93452392 -0.0009035870023138814 -0.001069938457394145
93482154 -0.001008220596197632 -0.0011341071054867566
93511916 -0.0011434317268332395 -0.001144649885132953
93541678 -0.0012533217721679374 -0.0011709389386938686
93571440 -0.0013824845450015248 -0.0012263546143363065
93601202 -0.0015130354425426996 -0.0012183044556097619
93630964 -0.0016379569918717907 -0.0012588076977225289
93660726 -0.0017830434587260359 -0.001252246016584635
93690488 -0.00193944385621748 -0.0011951587567600797
93720250 -0.0020698349257886536 -0.0011906081562483815
93750012 -0.0022213187867953597 -0.001140444412909096
93779774 -0.0023589497112818823 -0.0010828204611757143
93809536 -0.0024919869845151793 -0.001152884062683086
93839298 -0.002649462544600951 -0.0009859941411785014
93869060 -0.002784939212033113 -0.0009251055751968219
93898822 -0.002900345411195698 -0.000839215027598574
93928584 -0.003013246917802016 -0.0008096361986241654
93958346 -0.0031368189038605047 -0.0007252815271998881
93988108 -0.0032485150196292587 -0.0007938069111299456
94017870 -0.003336419312175288 -0.0006521040208628447
94047632 -0.003463756686508922 -0.0006870250722438642
94077394 -0.0035305680092482476 -0.00047325942915414415
94107156 -0.0036318270660709306 -0.0004450276410538282
94136918 -0.003725900640646995 -0.00034508346300904597
94166680 -0.003819049745386717 -0.00031074841002645264
94196442 -0.004106393259037579 -0.0002727151465522218
94226204 -0.004452050790058444 -0.0003790782787181838
94255966 -0.0047383723468181465 -0.0002269547636128028
94285728 -0.005124596187346546 -0.0002663482899988104
94315490 -0.005567691541646209 -0.00028930873250412
94345252 -0.006033194148452186 -0.0002664965733630041
94375014 -0.006572428909954843 -0.0003721148162147645
94404776 -0.007150927004270573 -0.00043998026439125425
94434538 -0.007908387502801262 -0.0005805210653454422
94464300 -0.007793163455946866 -0.0004984603545804609
94494062 -0.007331962533524131 -0.00013501328530085566
94523824 -0.006903872990570081 0.00010055360452961755
94553586 -0.00656192206425906 0.00023711595596679068
94583348 -0.006219470589952887 0.0004333896941621385
94613110 -0.0059164826164999846 0.0005471466626902635
94642872 -0.005660680387496898 0.0006748663708017082
94672634 -0.005382819744388957 0.0008041275273884144
94702396 -0.005140688398485008 0.0008867594887745735
94732158 -0.005015389887724649 0.0009389056313620474
94761920 -0.00500652019021848 0.0010260407631425363
94791682 -0.005038298106005682 0.001049517809502546
94821444 -0.004980190937296406 0.001197931087607023
94851206 -0.005008784195113515 0.0012202256824393025
94880968 -0.004938402809011346 0.0013660524312918785
94910730 -0.004933922830797494 0.0014220158602304413
94940492 -0.0048983859022254045 0.0015142864386077336
94970254 -0.004918366271076011 0.0015239970671315603
95000016 -0.00485605370488187 0.001636247164384275
95029778 -0.004945995553729995 0.0016408050857714973
95059540 -0.0049567987038082705 0.0017531529578804987
95089302 -0.005006443140538276 0.0018087212078627608
95119064 -0.005021527780662083 0.0018887068803058198
95148826 -0.005117399632586397 0.0018768567666401193
95178588 -0.005130752580145504 0.001966381233434371
95208350 -0.005160798436226205 0.0020379585027176686
95238112 -0.005209586910946094 0.0020828702489579624
95267874 -0.0052652613317469045 0.0021220852233347688
95297636 -0.005265642225739947 0.0021804111348049143
95327398 -0.005282585821229493 0.0022461969207370766
95357160 -0.005300911883909324 0.0023113376234136784
95386922 -0.005299020625984809 0.0023728132909264514
95416684 -0.005304100354917296 0.0024273440302750764
95446446 -0.005313259931386617 0.0024688721236383604
95476208 -0.005315803522339734 0.0025222008474964815
95505970 -0.005332495378961009 0.002575323085955125
95535732 -0.005342990979349235 0.0026242432311920903
95565494 -0.005324681056957516 0.002693470244056683
95595256 -0.0053081387948675385 0.0027725390137307397
95625018 -0.005300021425739591 0.0028462926074950662
95654780 -0.005301431601285693 0.0029122456110301374
95684542 -0.005274244181079511 0.003003097316167042
95714304 -0.005257376207457069 0.0030711477438869475
95744066 -0.005244822413620779 0.00313876734636482
95773828 -0.0052293443939320445 0.003209535956568759
95803590 -0.0052217887554143905 0.003285623157824399
95833352 -0.00520021909683135 0.0033431232367151023
95863114 -0.0051430203808506695 0.0033631432346354056
95892876 -0.005096752236421365 0.003394934482332403
95922638 -0.005037889917612821 0.0034197497428449675
95952400 -0.004983331349727898 0.0034511885231138235
95982162 -0.004942134164093369 0.003461765000113726
96011924 -0.005723155991089946 0.0029087468672550198
96041686 -0.004826714251391232 0.003426462243191168
96071448 -0.004778643542038727 0.00344789647379265
96101210 -0.004722213836383017 0.0034612806776765336
96130972 -0.0055725230397825325 0.0030579360460328987
96160734 -0.004732794169868737 0.003536464349692347
96190496 -0.004557349403467903 0.0036273916888341995
96220258 -0.004470511733143401 0.003670382165421144
96250020 -0.004749411971819091 0.003660694457884767
96279782 -0.004775326551565535 0.003668530739200254
96309544 -0.004784798723976729 0.003720885788493582
96339306 -0.0047862318115734935 0.0037623577839505586
96369068 -0.004805903084643539 0.003786505608523987
96398830 -0.004612874216676094 0.0038676586566507667
96428592 -0.004801332339946445 0.0038927384202260356
96458354 -0.004798140801564172 0.0039452249465581225
96488116 -0.004032151250648824 0.004292194486353496
96517878 -0.0047906284751974915 0.004066730181631028
96547640 -0.004784509102615041 0.004125805068770629
96577402 -0.004797333517435953 0.004173720291074862
96607164 -0.004776925072499645 0.004230477656306773
96636926 -0.003989227289266528 0.004564017230324764
96666688 -0.004776381877778723 0.004364049440788617
96696450 -0.004730959637956213 0.004335950328335863
96726212 -0.004736251746940871 0.004286869647201339
96755974 -0.0055271605600363555 0.003972995082315322
96785736 -0.004650195716630022 0.0042597321622027005
96815498 -0.005463133980871741 0.00392807775253363
96845260 -0.004583838345242967 0.004213383076819882
96875022 -0.0045526809190670845 0.004183844616383841
96904784 -0.004549758880378673 0.004164805052554145
96934546 -0.004451477586361095 0.004169575490680547
96964308 -0.00450250950502243 0.0041422462160245815
96994070 -0.004520518692475677 0.004126499340583265
97023832 -0.003824542848682834 0.004363995758554506
97053594 -0.004573810569676075 0.004109166835143712
97083356 -0.00460655512267101 0.004091294198582626
97113118 -0.00540187930373309 0.003790253182077074
97142880 -0.004640452944935052 0.0040733497935114115
97172642 -0.0039534675780446464 0.004309980889736756
97202404 -0.004698416796958998 0.004037597666718153
97232166 -0.004695405689873363 0.004047114062161216
97261928 -0.004696546102600742 0.004088958052426245
97291690 -0.0046664708096951744 0.0041355778233965815
97321452 -0.004655521448497042 0.004177589124241475
97351214 -0.004656063606299571 0.004209182334594333
97380976 -0.004656975593186416 0.004246190698133278
97410738 -0.004612460089447663 0.004285863563272047
97440500 -0.004589718316976113 0.0043287696058273905
97470262 -0.003865021028540604 0.004591890781754324
97500024 -0.004564363939031216 0.004397461523238784
97529786 -0.004592854832480906 0.004433639684435472
97559548 -0.003841682210367209 0.004693199666544919
97589310 -0.004555777923441368 0.004529492214674064
97619072 -0.004482201362421259 0.004585756225093296
97648834 -0.004580127283765047 0.0046003439897506476
97678596 -0.004552892175249848 0.004642749923306833
97708358 -0.003822600350977771 0.0048763153571996344
97738120 -0.0045457743112102085 0.0047287353677649005
97767882 -0.004549426597623786 0.004782722753565796
97797644 -0.005260245586158155 0.004590889071209459
97827406 -0.0044553258126159845 0.004821616957020868
97857168 -0.004353833870899086 0.004845386704661746
97886930 -0.004281819475445982 0.004876803092700454
97916692 -0.004923069257794628 0.004702703242295881
97946454 -0.004144257371434771 0.004907953810810003
97976216 -0.004768483981189795 0.00475058596580252
98005978 -0.0033697761126701116 0.005084892635527395
98035740 -0.003952946320242821 0.004951356054622917
98065502 -0.003959848591327178 0.004965717823295659
98095264 -0.004024782876224999 0.004993106377125473
98125026 -0.004051506437722641 0.005022171647686796
98154788 -0.003461035177264874 0.005187006520378813
98184550 -0.004201595955455981 0.005065388498872539
98214312 -0.0042663889767743 0.005087170616996427
98244074 -0.003646614543924796 0.005264176838654294
98273836 -0.0044419254662417 0.005125641146501896
98303598 -0.0044816848956318505 0.00514481208346838
98333360 -0.0045644572695958735 0.005157850321910102
98363122 -0.004582647320045408 0.005127271647977794
98392884 -0.0045325269726590785 0.0051207179697438515
98422646 -0.004554743187181781 0.005083517707922699
98452408 -0.0045390377574458666 0.0050581389409736655
98482170 -0.004490064306805817 0.005041987767551836
98511932 -0.004507859257840515 0.005012781682254647
98541694 -0.0037696222233454322 0.005161139919856294
98571456 -0.004445617685971478 0.004975342918744476
98601218 -0.005126943855444864 0.004771342652623027
98630980 -0.00439570973128542 0.0049746122713578665
98660742 -0.004348101957485202 0.005008720778213591
98690504 -0.0036134766468429187 0.005190862351132792
98720266 -0.004920932926941523 0.004940902582838144
98750028 -0.0041973307505899825 0.005119945983536163
98779790 -0.004144130908334288 0.005154465856364803
98809552 -0.004134222127324989 0.005185129995205891
98839314 -0.004042183865436624 0.005211920613032819
98869076 -0.004031875906935089 0.00524556993028183
98898838 -0.004611989584665276 0.005169467873270587
98928600 -0.003968638372673283 0.005296616457620712
98958362 -0.004645543395097764 0.005199457143275861
98988124 -0.004045019821938427 0.005325701442775147
99017886 -0.00401433877485295 0.0052824422884644685
99047648 -0.0040776094637275315 0.005288315976889191
99077410 -0.004043638059375374 0.005313884569189536
99107172 -0.004056678646650815 0.005320708562700334
99136934 -0.004589718931112387 0.005305396086275027
99166696 -0.004147642891214037 0.005352805200753121
99196458 -0.0041132688363706305 0.005330343444213108
99226220 -0.004120404503223892 0.005309870239055671
99255982 -0.0041733457357165165 0.005275174002492807
99285744 -0.004140974709666177 0.0052469593579924385
99315506 -0.004194990636447311 0.005227640837806511
99345268 -0.004196232121166021 0.00520181938126774
99375030 -0.004154940331816206 0.005189900402332831
99404792 -0.004215023608656767 0.005164095672624096
99434554 -0.004214103673382723 0.005125926655386936
99464316 -0.004130363118026051 0.005178084068925222
99494078 -0.0041004905326966845 0.005218378554865443
99523840 -0.003969219522389162 0.005269676369171279
99553602 -0.0038896223422069027 0.005317210137961742
99583364 -0.004413619878478903 0.005261850419544894
99613126 -0.003119181637645278 0.005476430403512569
99642888 -0.0036616128605591095 0.005446939070970903
99672650 -0.00358548068537918 0.005495186302996262
99702412 -0.004072572941021331 0.005439364391198349
99732174 -0.003474773853004396 0.005541684946666546
99761936 -0.0033498811970644094 0.005545102091157507
99791698 -0.0036036137201752613 0.005481094010731261
99821460 -0.0035905413528808296 0.005473068274754922
99851222 -0.0036829762300285888 0.005428778580199102
99880984 -0.004828514193303491 0.005282483665105052
99910746 -0.0037080131680607177 0.005389694804346412
99940508 -0.00433185903466801 0.005266113593277464
99970270 -0.0037869497348063663 0.00533411484242547
100000032 -0.003833761910949567 0.005318329313688767
100029794 -0.0038045712576737726 0.005317923233057986
100059556 -0.003801791110116876 0.005321051643338954
100089318 -0.0037788660054176543 0.005329620514733473
100119080 -0.003767730806501764 0.005335804794252689
100148842 -0.0037484690803064 0.005343758817663259
100178604 -0.0037371193131221407 0.005351634472538805
100208366 -0.003720278138885586 0.005365930837457224
100238128 -0.003704379382422687 0.005367186092485438
100267890 -0.0036856756903775475 0.005375018335673172
100297652 -0.0036783747903475408 0.005372448720183906
100327414 -0.0036850308038688514 0.005382757037017
100357176 -0.003687694706338667 0.005384877822256174
100386938 -0.0036940036622402036 0.005382697838374582
100416700 -0.003703307499399801 0.005385988531062237
100446462 -0.0037017191896654153 0.005395266085610655
100476224 -0.003702442554056666 0.0053958775370014905
100505986 -0.0037059418101462018 0.005397267669986611
100535748 -0.0037054377266777633 0.005399976852373771
100565510 -0.0037234860619383813 0.0054153190244209184
100595272 -0.0037715843408906253 0.005452437523535271
100625034 -0.003812165590363137 0.005489853197678493
100654796 -0.0038617518112556174 0.005521834194487054
100684558 -0.0039079063399538715 0.005563964919514303
100714320 -0.003957267093472628 0.0056080267386306466
100744082 -0.004004459945483895 0.0056486084382441175
100773844 -0.004053118683781204 0.005694636281701132
100803606 -0.004116074644003334 0.0057321660573117
100833368 -0.004161442919589238 0.005764649837159974
100863130 -0.004108457103716647 0.005755888057259766
100892892 -0.004057826508631474 0.005742959960971683
100922654 -0.004013387913553162 0.005720445634409349
100952416 -0.003969155779971479 0.005701306082420715
100982178 -0.003913851030174157 0.0056931434420286
101011940 -0.003869085560702342 0.005671814705544411
101041702 -0.0038300330593724094 0.005657096753841508
101071464 -0.0037720914257645738 0.005642096946635032
101101226 -0.0037284048799497015 0.005622750486876912
101130988 -0.0037173761996487325 0.005615770403815642
101160750 -0.003717802126010014 0.005597992410048373
101190512 -0.003728730975794954 0.00559582037511197
101220274 -0.003737017783040923 0.005590601362831016
101250036 -0.003733396283667247 0.005583767821599686
101279798 -0.0037435900352749134 0.00557767300944613
101309560 -0.003755420397179694 0.005564961661752738
101339322 -0.0037618371876086062 0.005557530183067062
101369084 -0.003765574052069379 0.0055489812850361
101398846 -0.0037439642275092886 0.005563096152872671
101428608 -0.0036896045078384874 0.005614720612453265
101458370 -0.003631152037726035 0.005675367396487864
101488132 -0.003559950923879142 0.005726486042866922
101517894 -0.0034971752700674497 0.005775110295864479
101547656 -0.0034386466713815602 0.005821115869554231
101577418 -0.0033740916627155414 0.005873458007319091
101607180 -0.003304077466257759 0.005916123120324516
101636942 -0.003240735868162128 0.00595852939651851
101666704 -0.0031657412270898067 0.006008071420103604
101696466 -0.00326494273765017 0.0059690258940209235
101726228 -0.003360964957986015 0.00591989112149275
101755990 -0.0034588079022647984 0.005873567504198307
101785752 -0.0035528256497342854 0.005821537499367159
101815514 -0.003640090004484316 0.00576204886199089
101845276 -0.003736840258233452 0.00570984986027889
101875038 -0.0038194583228450107 0.005644571333432775
101904800 -0.003907922735185543 0.005572351468771772
101934562 -0.003991541849322858 0.005507723353693199
101964324 -0.003960126973266857 0.0055121321080661275
101994086 -0.0038804497157000043 0.005546992978706651
102023848 -0.003805371891224463 0.005597840933961554
102053610 -0.003712079042611149 0.005634924947723965
102083372 -0.003642561454512234 0.00566856611415074
102113134 -0.0035493940076820876 0.005705142678423334
102142896 -0.0034660035005471567 0.00572963665086571
102172658 -0.003377280535076156 0.005755826663461988
102202420 -0.0032939754498446517 0.005774998117947389
102232182 -0.003255480543472953 0.005804231468535184
102261944 -0.0036519715578400016 0.005917791771430939
102291706 -0.003434179321911155 0.005861063220992486
102321468 -0.003529089702768459 0.005892082211638932
102351230 -0.003621489976324237 0.005911445660925824
102380992 -0.003709592117015699 0.005934373715056308
102410754 -0.003810255253096436 0.0059557792630153825
102440516 -0.003914830681584012 0.005973790261114615
102470278 -0.00401314661321835 0.005998319556440456
102500040 -0.004118046651860289 0.006012766357112481
102529802 -0.004069960041318075 0.006020905105414692
102559564 -0.004020200653094058 0.0060337648547726325
102589326 -0.003960186507171546 0.006046277996625777
102619088 -0.003906830609183767 0.006061986473424971
102648850 -0.003850699302070786 0.0060717379026033295
102678612 -0.0037876950515081166 0.0060877239404637665
102708374 -0.003753828846456094 0.00610070633737616
102738136 -0.0036894586094552476 0.006101605583550861
102767898 -0.003638105771083519 0.006116625472153498
102797660 -0.003621322329807697 0.006094523996487916
102827422 -0.0036142928234460157 0.00606484784142149
102857184 -0.003596142778276992 0.006040314821150714
102886946 -0.003590725967081093 0.006005331103105343
102916708 -0.003583881207074158 0.005982127346861664
102946470 -0.0035736551829636002 0.0059461633710630865
102976232 -0.003562831022122431 0.005924728660942028
103005994 -0.00356169548154137 0.005887461973622612
103035756 -0.0035481970126906796 0.005856523810418102
103065518 -0.003541301681083847 0.005839627761662836
103095280 -0.0035507439865227514 0.005870060807770139
103125042 -0.0035525067222235396 0.005899580295356148
103154804 -0.003553683122399093 0.005916287037839963
103184566 -0.003557926790276796 0.005942877361767834
103214328 -0.0035637389220146455 0.0059705942027584655
103244090 -0.0035658362434933975 0.005992910033950529
103273852 -0.0035635430075093557 0.006023242982029752
103303614 -0.0035714247277922563 0.0060366622800782825
103333376 -0.0035757108509071197 0.006068305014386244
103363138 -0.0034953021182839122 0.006061152902748454
103392900 -0.0033986017393136682 0.00605291164328954
103422662 -0.0033063352317689427 0.006047158435853553
103452424 -0.003226858705611998 0.0060280101402569895
103482186 -0.003143697711224542 0.006014415644498622
103511948 -0.0030625031416456018 0.006002181278850914
103541710 -0.0029847365640360006 0.005997699930339515
103571472 -0.0028957997684785127 0.005985977744664262
103601234 -0.0028258262266297003 0.005968395338063741
103630996 -0.0028241788882582314 0.005966130176208898
103660758 -0.0028734598954828824 0.005964039990001173
103690520 -0.0029278491102691295 0.005957719420170319
103720282 -0.0029755351185954933 0.0059494876199420645
103750044 -0.0030187329857153866 0.005941467931240521
103779806 -0.003071518915201708 0.005934160178446002
103809568 -0.003126421254423676 0.005920904807189694
103839330 -0.003179993574997828 0.005912803597626424
103869092 -0.003223374680840722 0.005902800272947862
103898854 -0.0032612039722064033 0.005908725778085345
103928616 -0.003286908229088219 0.005938863551495921
103958378 -0.0033288277759597686 0.005963433529037599
103988140 -0.003364769317026098 0.005982798282665226
104017902 -0.0034149868316456634 0.006005701628292416
104047664 -0.0034492287891149083 0.006033154777564018
104077426 -0.0034939176183370144 0.00605447563071877
104107188 -0.0035383724115024932 0.0060827064947636565
104136950 -0.003573585303452068 0.006110955153249184
104166712 -0.003614357249812706 0.006130308937467974
104196474 -0.0035975647625294967 0.006170496576185832
104226236 -0.003588259983045752 0.006213582951334592
104255998 -0.003577801849859753 0.006259469075652326
104285760 -0.0035574971528098374 0.006301707070191735
104315522 -0.0035433571857329356 0.0063449593141584396
104345284 -0.0035297035742094095 0.006388398369787381
104375046 -0.0035151955835280033 0.00643721263963725
104404808 -0.003503185460228962 0.006479233623276577
104434570 -0.003471838816593995 0.006523540226224527
104464332 -0.003468117086947778 0.0065057687010844105
104494094 -0.0034550539884521717 0.006443589342139702
104523856 -0.0034535250175588166 0.006392817146009267
104553618 -0.0034419975109263733 0.006331719022076852
104583380 -0.0034388051991534807 0.006280906262782063
104613142 -0.003433354722424994 0.0062276796247238055
104642904 -0.0034189395023863107 0.006168498439932749
104672666 -0.0034169468589939273 0.006120274023601006
104702428 -0.0033992272461098962 0.006060508101100145
104732190 -0.0033901011901619105 0.006054437038263037
104761952 -0.0033656609736205535 0.006125385806148694
104791714 -0.0033446044451818304 0.006191020276876808
104821476 -0.00332086034771274 0.006266354569089729
104851238 -0.0032920369166472324 0.006339117307102839
104881000 -0.0032589099503323145 0.006413913747937237
104910762 -0.0032367191922359935 0.006490078240913322
104940524 -0.003195000493830234 0.006554892489579061
104970286 -0.0031563522859307555 0.006636797092894992
105000048 -0.0031326664352616792 0.006709170454709832
