# HZ S RI R 50
90000000 0.0004959697260402315 0.004543668666450161
90029762 0.0005430172801330598 0.004558941981365818
90059524 0.0003508577024566075 0.004551182323200332
90089286 0.0004902452942499359 0.004578052245201741
90119048 0.00034952638723377756 0.004577267548068551
90148810 0.0004894385337669908 0.004601213294547898
90178572 0.0004815870904363669 0.004605811496038582
90208334 0.0005298150127745733 0.004602850445849071
90238096 0.00034212137826793924 0.004610650420529075
90267858 0.00047442232027779626 0.004629494128308043
90297620 0.000491892754189508 0.004591752108586945
90327382 0.0005701433620447571 0.004532563684576945
90357144 0.0005453345687029959 0.004469854363749098
90386906 0.0005758953034494926 0.004403232489160972
90416668 0.0004667875714830798 0.004337356254218721
90446430 0.0006219300049844681 0.00428109260071339
90476192 0.0006892729865180099 0.004228743270221828
90505954 0.0007155964767665343 0.0041657194703439435
90535716 0.0006939723314542026 0.00410166424209115
90565478 0.0007648102123165213 0.004052687215703649
90595240 0.0007707828966668826 0.004032657599357122
90625002 0.0008224044522882334 0.004013783383591456
90654764 0.0009031887459346372 0.003987641104779123
90684526 0.0009440082643902789 0.003957807099241085
90714288 0.0009479854358562434 0.0039302627857670126
90744050 0.0009961214943583184 0.003907014011593185
90773812 0.0010833111160132034 0.00387297494027065
90803574 0.0010978984912460787 0.0038335009633925538
90833336 0.0011697188606885494 0.0038031078996996256
90863098 0.001198344379830022 0.003753942439941144
90892860 0.0011804841578385609 0.0037010820851860315
90922622 0.0012385219709391757 0.0036457393412294
90952384 0.0012605218862359819 0.003582238179015972
90982146 0.0012506336619510642 0.0035266804498288173
91011908 0.0012302195815667761 0.0034717769971814006
91041670 0.0012923766211804099 0.0034030140091827732
91071432 0.0012847529030729614 0.003341234560452894
91101194 0.00123676412154227 0.0032915455371253046
91130956 0.001373437028101828 0.003253150195510041
91160718 0.0013466400995640771 0.0032222903918485172
91190480 0.0013429988429970853 0.0032296363527092027
91220242 0.0012540962431879699 0.0032142681508212315
91250004 0.0013473193698099284 0.0031850043314073963
91279766 0.0012558554638938747 0.0031667836451245604
91309528 0.0013789132098779287 0.003131083624975283
91339290 0.001350578531484855 0.003110971781043406
91369052 0.0013774073296380603 0.0030708545548920486
91398814 0.0012624664058425964 0.0030391841483056515
91428576 0.001347206685350047 0.0029707690927225096
91458338 0.0013825950210102627 0.0029011009302086633
91488100 0.0013567730475597451 0.0028326198273759657
91517862 0.0013599472229142654 0.0027610511236770326
91547624 0.0013947061107812686 0.002668038792426469
91577386 0.0013864311381717863 0.002602641381453812
91607148 0.0013694509792200485 0.002542951625020034
91636910 0.0013701052965484637 0.00245948558468578
91666672 0.001395686481688742 0.00238888516224887
91696434 0.0014069257313693872 0.0023119292286653947
91726196 0.0014588392604513683 0.0022160562758693383
91755958 0.0014816569867370229 0.00213112161197453
91785720 0.0015123898933506218 0.0020256360424349236
91815482 0.001531150393995403 0.0019407840483037673
91845244 0.0015411956879734772 0.0018439521430558769
91875006 0.0015427661415966375 0.0017609772995367753
91904768 0.0015001690412447016 0.001683918686898807
91934530 0.001548054294317488 0.0015733775562517811
91964292 0.0015465405309896929 0.0014863930040901533
91994054 0.0015444307388320895 0.0013709384144816117
92023816 0.001469260929959072 0.0013415514570022347
92053578 0.0014809502700804905 0.0012496960147316697
92083340 0.00145014719507313 0.0011628536321580342
92113102 0.0014346919672854723 0.001077010903155163
92142864 0.0013875485186431232 0.0010042159918293978
92172626 0.0013487421327346577 0.000919022425097039
92202388 0.0012970159199097407 0.0008533967817788026
92232150 0.001253726062260156 0.0007356547952629053
92261912 0.0011793157976681447 0.0006395961329653994
92291674 0.0011219024626480925 0.0005582874595142675
92321436 0.001037440895290715 0.0004675147374751273
92351198 0.0009753205365416445 0.00037495199884234997
92380960 0.0008980578122514302 0.0002836840269031154
92410722 0.0008280914821315604 0.00020633218274491603
92440484 0.0007405059853494901 9.59288491410567e-05
92470246 0.0006501612157750577 4.217694914449187e-05
92500008 0.0005777605972652922 -5.2300658934748776e-05
92529770 0.0004987958022610388 -0.0001469339143873033
92559532 0.0003997217066088837 -0.00020664602939996169
92589294 0.00031853984657653783 -0.0002984065914918209
92619056 0.00023229342048582008 -0.0003636162586584934
92648818 0.00021992344031878674 -0.0005046710014553603
92678580 3.5130721789134217e-05 -0.0005308642120324272
92708342 -6.695016984157494e-05 -0.0005972513208756417
92738104 -0.0001667658128794069 -0.0006711976456646938
92767866 -0.00028853498217612327 -0.0007523106443172854
92797628 -0.0004149356713245129 -0.0008099247255232103
92827390 -0.0005060460244289401 -0.0009311019592795049
92857152 -0.0006528750766815125 -0.000941137708826831
92886914 -0.0007535261352648379 -0.0010457798107465879
92916676 -0.0009323386642606229 -0.0009926475465452946
92946438 -0.0010552961122788282 -0.0010755037240145332
92976200 -0.0011123027966771246 -0.0012956417438061436
93005962 -0.00132871940490106 -0.001231207114365768
93035724 -0.0015013997260277226 -0.0011652943469124563
93065486 -0.0016279312895706541 -0.0012676703591221593
93095248 -0.0018169178114316408 -0.0011451947595289657
93125010 -0.0019812638239193737 -0.0011436808382337227
93154772 -0.0021387722700287395 -0.0010770074995772932
93184534 -0.002259178437086229 -0.0011683002522839111
93214296 -0.0024427356644503764 -0.0010423120727868155
93244058 -0.002583621762031073 -0.0010931311264745763
93273820 -0.002737613279670448 -0.0009028740139371351
93303582 -0.002887572679328814 -0.0008016093301596737
93333344 -0.0030194431949979775 -0.0007141207634522072
93363106 -0.003151983938619985 -0.0006752131544005436
93392868 -0.00324872301836473 -0.0006837185188466712
93422630 -0.0033798239521270505 -0.0006763696965728114
93452392 -0.0034863383648348453 -0.0006053922125954746
93482154 -0.0035931862406875866 -0.0006139285130036466
93511916 -0.0037158502666264164 -0.0005537462217478783
93541678 -0.003809897160055419 -0.0005204809033268903
93571440 -0.0039357718895675405 -0.0005442505974977579
93601202 -0.004013470398231608 -0.0004636416281758134
93630964 -0.004118389098799201 -0.0003717203892454577
93660726 -0.004236160704270892 -0.00030611265156611615
93690488 -0.00431279781315321 -0.00013709650855707025
93720250 -0.004426652150561567 -5.531023171924927e-05
93750012 -0.004504674608928235 8.116077219096239e-05
93779774 -0.004561867599665885 0.00025937853103331015
93809536 -0.004708366125151401 0.0002263969227837615
93839298 -0.004697413644250552 0.00048244510424127736
93869060 -0.004752808951827982 0.0006282662626148469
93898822 -0.0047914453267883525 0.0007776629761840642
93928584 -0.0048497615839974495 0.0008349245599665923
93958346 -0.004869280947377064 0.0009777245990934599
93988108 -0.005005972717638504 0.0009058546155124839
94017870 -0.0049810674172412455 0.0011131708924411563
94047632 -0.005081010012047915 0.001105473777828181
94077394 -0.005005735847034357 0.001336348088537039
94107156 -0.005076775363364343 0.001393206415890341
94136918 -0.005058411294930422 0.0015075686251013528
94166680 -0.005106575185667029 0.0015420483745452892
94196442 -0.005403041979342259 0.0016889640021724803
94226204 -0.005829724224536758 0.0016981308694293308
94255966 -0.0060969364537235785 0.0019418973090674374
94285728 -0.006548876866007321 0.002043877041971789
94315490 -0.007018032134536699 0.002159180440265375
94345252 -0.007539967399208745 0.0023022485120702293
94375014 -0.008195126428520416 0.0023727492056657713
94404776 -0.00889370767077753 0.002477188670179082
94434538 -0.009736525907043433 0.0025420838570379455
94464300 -0.009528746523026668 0.0025302185571300434
94494062 -0.008784944496911994 0.002663763056439368
94523824 -0.00813782122662283 0.0027216223909114806
94553586 -0.007617917208493173 0.002721813446215691
94583348 -0.00709971787280228 0.002777795937593647
94613110 -0.006682959957368291 0.002743381421360244
94642872 -0.0062838881440750866 0.002735805975595269
94672634 -0.005918876162055448 0.0027452321378713448
94702396 -0.0055968210989218205 0.0027110057025238284
94732158 -0.005405424295600597 0.0027012583634865115
94761920 -0.005349322751533873 0.0027603684504946798
94791682 -0.005357023141677879 0.0027530275964653796
94821444 -0.005239511568951066 0.0028614725998119565
94851206 -0.0052563100729558455 0.0028779983049473947
94880968 -0.0051101956356906725 0.0029602396178769544
94910730 -0.005083914463523965 0.0029859566289463335
94940492 -0.005013964170972752 0.00303552826570312
94970254 -0.005029843782960432 0.0030364850218701613
95000016 -0.004920715142490473 0.0031129678460123694
95029778 -0.004995361856780028 0.003128602578716695
95059540 -0.004966479658852611 0.0031973135664962035
95089302 -0.0050067661995567584 0.0032473288180107592
95119064 -0.005014055860943581 0.0032992405590206663
95148826 -0.005105809178778475 0.0033129463638146136
95178588 -0.0050977720973405865 0.0033653289429025303
95208350 -0.005124785472952308 0.0034039498233199485
95238112 -0.0051494631132474175 0.0034592117727764563
95267874 -0.005191370754954342 0.0034977725871801237
95297636 -0.005192722781264636 0.003535144251581873
95327398 -0.0051837176241979884 0.003590896305480796
95357160 -0.005197725347044542 0.0036251119984512803
95386922 -0.0051848591350745045 0.0036668260505510067
95416684 -0.005176812764731706 0.003703799866571527
95446446 -0.005173407839818049 0.0037376785945380845
95476208 -0.005148246301643423 0.0037817966074516567
95505970 -0.005163757611641114 0.003817596309696274
95535732 -0.005158725819490257 0.0038708836948529324
95565494 -0.00514407055528561 0.003904321753891366
95595256 -0.00511908092474047 0.003972013627650334
95625018 -0.00510032672097315 0.00402318025196985
95654780 -0.005069523760594698 0.004086606501357611
95684542 -0.00502849021327387 0.004143301045854779
95714304 -0.005011855378086242 0.004201837467688027
95744066 -0.004973162915731618 0.0042695664393020945
95773828 -0.004967187278056853 0.0043274881248188775
95803590 -0.004916830584350449 0.004370661825394857
95833352 -0.004902992063005193 0.004416583304482911
95863114 -0.004837966881915239 0.004433049418321735
95892876 -0.004785546741159476 0.004444423537486244
95922638 -0.004732925339094634 0.00444342262288851
95952400 -0.004677503166669587 0.004451962965400986
95982162 -0.004619368306843666 0.00445593486507487
96011924 -0.0054645105445397186 0.004185794963636249
96041686 -0.004512854208670041 0.004458998156941919
96071448 -0.004465734376954627 0.004453768711325943
96101210 -0.004427475118096117 0.0044405534436213825
96130972 -0.0052591720970477296 0.004242873619900166
96160734 -0.0044053869383478585 0.004506253206130041
96190496 -0.004409331574392829 0.004544365990642069
96220258 -0.0044100434615124825 0.004570170650146047
96250020 -0.0044137928994828525 0.004594799287352864
96279782 -0.0044229799347504685 0.004623686626714905
96309544 -0.004428515269839261 0.0046637149693447314
96339306 -0.004427093626287189 0.0046817611682854615
96369068 -0.0044423272214248475 0.004709971434780158
96398830 -0.004432717387251337 0.004756805648720585
96428592 -0.004421198331658235 0.004801824402803645
96458354 -0.0044146988123002955 0.004850720292522731
96488116 -0.003646576126202792 0.005060699882781672
96517878 -0.0043897442895807215 0.004940763535169982
96547640 -0.004370640198174892 0.005004835963562552
96577402 -0.004359254327214793 0.005047034486788305
96607164 -0.004345847002405666 0.005112236180728782
96636926 -0.00357177170126055 0.005282443999592468
96666688 -0.0043247045126452634 0.005207541227273078
96696450 -0.004288054998020252 0.005166835027223947
96726212 -0.004272003315686134 0.005125362384407148
96755974 -0.005062150263613481 0.004926597863508766
96785736 -0.004210198018835026 0.00505413214196907
96815498 -0.004980445749106407 0.00485214533385889
96845260 -0.004145483841564027 0.004991442786609536
96875022 -0.0041199318418516555 0.004948440869163959
96904784 -0.004102046220853755 0.0049150682346662524
96934546 -0.004013161820911613 0.004885917896943875
96964308 -0.00407028677519146 0.00485640749067288
96994070 -0.00409249607261551 0.004842637042625249
97023832 -0.0034333641133778106 0.004955931085892871
97053594 -0.004139204467180242 0.00481419044502593
97083356 -0.004177212329851261 0.004792593176826307
97113118 -0.004937546746875128 0.004606481355857459
97142880 -0.00421875199789754 0.004762520488941864
97172642 -0.003562681830754649 0.004885060394268114
97202404 -0.00427845305652323 0.0047202444104299255
97232166 -0.0042694729566162045 0.004725617404675162
97261928 -0.004269686744789868 0.004744928061848043
97291690 -0.0042295865264441 0.004789635181397022
97321452 -0.004213138284864277 0.004811571510342144
97351214 -0.004216940441577672 0.0048427130548310635
97380976 -0.004201097538743122 0.004874235907302723
97410738 -0.004159101786928088 0.004907157551385976
97440500 -0.004143414462407042 0.004927214173619026
97470262 -0.0034511746669027847 0.005089430813665931
97500024 -0.004102364577091407 0.004987517146248514
97529786 -0.0041199555580347345 0.0050162185066742184
97559548 -0.0034179499804121187 0.005181358502030382
97589310 -0.00409235074412841 0.005090809713232227
97619072 -0.004009862924762039 0.0051374573316582215
97648834 -0.004107059939479209 0.005154540466149973
97678596 -0.004070695379554182 0.005190236685038721
97708358 -0.003387166048995061 0.005332677444903099
97738120 -0.004051862505746353 0.005263300770170139
97767882 -0.0040491465744260996 0.005296632412721587
97797644 -0.004719270621066177 0.00519917962171756
97827406 -0.003970067271108136 0.005323434572423604
97857168 -0.0038781196871202164 0.005329018962436095
97886930 -0.0038162770767166147 0.005336122480735858
97916692 -0.004421869468248249 0.005238180463167744
97946454 -0.0036933108595358652 0.005354448721681781
97976216 -0.004282064541981089 0.005253847924415579
98005978 -0.0029578853022293006 0.005457090806296171
98035740 -0.0035119530181229285 0.005366224784958798
98065502 -0.0035274117006407237 0.005373032918592249
98095264 -0.0035883204617587643 0.005400779313872036
98125026 -0.0036213252159007494 0.005430081366506594
98154788 -0.003053545164468069 0.005548644368880046
98184550 -0.003742207330205715 0.005474118490908869
98214312 -0.003810368509948703 0.00549340577682394
98244074 -0.003224577951934684 0.005612797311997803
98273836 -0.003975862209758642 0.005535363970189844
98303598 -0.004017301425900053 0.005550284992235285
98333360 -0.0040854908035192145 0.0055747897148463324
98363122 -0.004115213874978501 0.005540137756618255
98392884 -0.00406587620516106 0.005514559259751795
98422646 -0.004101952349965246 0.005480260571453658
98452408 -0.0040849617233175125 0.005445817588092463
98482170 -0.004045976439342694 0.005425778402751886
98511932 -0.004071684173054481 0.005398768906689033
98541694 -0.0033731853825211314 0.005478195581544168
98571456 -0.004019350284450534 0.005341804553501547
98601218 -0.004655995404830364 0.0051953963858787505
98630980 -0.0039699413946114185 0.005328345305617761
98660742 -0.0039277906529097415 0.0053587950677108035
98690504 -0.003235821792742593 0.005481097072963739
98720266 -0.004461826687820802 0.005320534578820101
98750028 -0.0037718301728995843 0.005451839844853036
98779790 -0.0037233346712081707 0.005476549672623175
98809552 -0.0037190634724890764 0.005499213272711682
98839314 -0.0036245782413718247 0.005531167043640503
98869076 -0.0036155633605555798 0.005555906201014238
98898838 -0.004165314458875994 0.005510565888118456
98928600 -0.003551045623684608 0.0055950253834487745
98958362 -0.004194379857900256 0.005551087735220293
98988124 -0.0036360649868567288 0.005624837605607173
99017886 -0.0036081780735892637 0.0056483821348694615
99047648 -0.0036609822149988444 0.005647138629892829
99077410 -0.0036415818786436683 0.005675584151603996
99107172 -0.003655151340703787 0.005688504280230169
99136934 -0.003715682535300035 0.005711697460985402
99166696 -0.0037307642711284987 0.005727354204228068
99196458 -0.003692181821510802 0.005707338514086819
99226220 -0.0037049077926931853 0.005676316231530858
99255982 -0.0037641076118503677 0.005642080204657226
99285744 -0.0037242726807409023 0.005624697463044688
99315506 -0.003787332967742693 0.005605437575111191
99345268 -0.0038743118801988067 0.005575150649868548
99375030 -0.0036722732048609747 0.005554569894497888
99404792 -0.0038048094235792382 0.005525558227123549
99434554 -0.003814942085731948 0.005491644969794255
99464316 -0.003799745357674422 0.005529402893672415
99494078 -0.0036927634908579636 0.005563793277455203
99523840 -0.0035675143817141246 0.005604606394314301
99553602 -0.00349165508486116 0.005642037727131117
99583364 -0.0039773131833569855 0.005611205203484601
99613126 -0.0027535266024966442 0.005777383011412382
99642888 -0.003262890071152054 0.0057580865483917495
99672650 -0.0031923676972436363 0.005784197430070734
99702412 -0.003644987768244806 0.005764191022644852
99732174 -0.003072470620913537 0.005829200149319257
99761936 -0.002959763579038773 0.005824831411338227
99791698 -0.0032052527271850062 0.005780495236742024
99821460 -0.0031949429308168673 0.005748433314465241
99851222 -0.003281931971876983 0.005713524058277922
99880984 -0.003807195438523133 0.005644487868613168
99910746 -0.00330802320770609 0.005675177408915766
99940508 -0.00389091505780296 0.005585670824487702
99970270 -0.0033735746457297464 0.005610311957960039
100000032 -0.0034195984006768435 0.005588146827951814
100029794 -0.0033981598457141406 0.005582793449664311
100059556 -0.0033884591713264087 0.00559120358327244
100089318 -0.003374586492489529 0.005591061800641352
100119080 -0.003360636452489183 0.005595823069835414
100148842 -0.003345437392736773 0.00560482393687611
100178604 -0.0033328319658624994 0.005600148568478916
100208366 -0.003320302831657517 0.005603544400129343
100238128 -0.0033019890952765262 0.005605636818405419
100267890 -0.003292147443316428 0.0056099919747015625
100297652 -0.0032911875396614333 0.005610373347963357
100327414 -0.0032937451256388247 0.005612046479641313
100357176 -0.0032954211145327767 0.005612819500273414
100386938 -0.0032975081117907748 0.00561813745465855
100416700 -0.0033111194609579536 0.0056119027887950685
100446462 -0.0033066315859814066 0.005610928435531571
100476224 -0.0033067907137901333 0.00562307010740733
100505986 -0.0033156746893224505 0.005610685276116257
100535748 -0.0033171135676329754 0.005616054640838135
100565510 -0.0033365664278486693 0.005632672754624694
100595272 -0.003382709244600535 0.005677342415654816
100625034 -0.0034287106677719126 0.00571363883917201
100654796 -0.0034799322244382074 0.005754283683888236
100684558 -0.0035185487545488685 0.005800508468564319
100714320 -0.0035732170898091203 0.00583906593646745
100744082 -0.003613334342805629 0.005878694783035784
100773844 -0.0036672806535197446 0.005927907829415355
100803606 -0.003725498729233533 0.0059658837803843985
100833368 -0.0037781357032879892 0.0060134473007251625
100863130 -0.0037267420708875293 0.005993818377708973
100892892 -0.0036848565661143197 0.005972797406738236
100922654 -0.0036400705189475694 0.005956015263236361
100952416 -0.003594360989229401 0.005932436372446477
100982178 -0.00354261879879762 0.005906166707542012
101011940 -0.0034994637199904635 0.005894588220106326
101041702 -0.003458659606727134 0.005867917071435764
101071464 -0.003416223647941788 0.005851451174355215
101101226 -0.0033617483398204273 0.0058356738084797384
101130988 -0.0033544511921613806 0.005810321002769581
101160750 -0.003369486730548567 0.005811489328900792
101190512 -0.0033773659153782777 0.005800703013887181
101220274 -0.003387451477249832 0.005796335711144848
101250036 -0.0033905034315475325 0.005785629424264358
101279798 -0.003399901698739277 0.005774179320412973
101309560 -0.0034114437360447734 0.005767733319327236
101339322 -0.003423551891277922 0.005761255293117212
101369084 -0.003420861544393212 0.005751758860425457
101398846 -0.0034125450116830576 0.005762691230528122
101428608 -0.0033470578260936736 0.0058111443581086815
101458370 -0.00328145532899855 0.0058622793368217395
101488132 -0.0032182093540129215 0.005908590421011369
101517894 -0.0031551880169413977 0.005952981623180249
101547656 -0.0030876374294841495 0.006007202349628952
101577418 -0.003018468439990396 0.006045362996435468
101607180 -0.0029566958402109426 0.0060856622854197065
101636942 -0.002889113784974902 0.006129736766813271
101666704 -0.0028135856682231166 0.006161697529905373
101696466 -0.0029111912430503217 0.006128758915436386
101726228 -0.0030261008754287853 0.006086225743979529
101755990 -0.0031235990003112284 0.006048550325166435
101785752 -0.003219723114132322 0.005994546127449669
101815514 -0.0033198389488061308 0.005944973766616044
101845276 -0.003409793451857379 0.005887160132688344
101875038 -0.003503917112499412 0.005833311161782174
101904800 -0.0035881230874563164 0.0057743819022327385
101934562 -0.0036775901523329454 0.005701161525020939
101964324 -0.003651295579825138 0.0057063727419580925
101994086 -0.0035709315775279676 0.005736215964189775
102023848 -0.003482489588672317 0.005782781879761002
102053610 -0.0033894554216686284 0.005809238606146703
102083372 -0.003307443289599163 0.005838008521801134
102113134 -0.0032189919073279047 0.0058600988333703
102142896 -0.003134948018256129 0.005885191954062849
102172658 -0.0030508305863477933 0.0059081142824348966
102202420 -0.0029693637435374283 0.005931756054471077
102232182 -0.002931160649638596 0.005950743464847557
102261944 -0.0030240169306425843 0.0059841158996748215
102291706 -0.003255118445442837 0.00605665758538228
102321468 -0.003196761175719346 0.006052472639350537
102351230 -0.003279695473644746 0.006073302072177198
102380992 -0.003375843893504369 0.006104182040285217
102410754 -0.0034832955466377446 0.006138785300193675
102440516 -0.0035712966808469364 0.006156494086794359
102470278 -0.0036825064441724613 0.00619066401993045
102500040 -0.0036283171178424344 0.0062039712413897215
102529802 -0.003728953518352095 0.006217793520243156
102559564 -0.0036825707732159683 0.006226053037064818
102589326 -0.003631926996265618 0.006239676109124096
102619088 -0.003574079093011532 0.0062379766625999585
102648850 -0.0035197927899006136 0.006250486929891783
102678612 -0.0034820938338503034 0.006246832627771145
102708374 -0.0034223891649475843 0.0062656429138377824
102738136 -0.003364046445642269 0.0062731817166081175
102767898 -0.003311266916233532 0.00627510322708233
102797660 -0.0032970033354490402 0.006251248105780265
102827422 -0.0033470934149946417 0.006269773530123801
102857184 -0.00327046160026115 0.006196842923901101
102886946 -0.0032773022431988306 0.006167754913622001
102916708 -0.003269504031329675 0.006136105791256241
102946470 -0.0032662087055731533 0.0061100604021272565
102976232 -0.0032549252437455815 0.006074524355810975
103005994 -0.0032547094632932477 0.006039305257077851
103035756 -0.003243355257642141 0.006014817333114551
103065518 -0.0032351475916004473 0.006004587412228116
103095280 -0.0032448621518547916 0.006028450547740702
103125042 -0.003244815988734501 0.006044543065483101
103154804 -0.0032480614894175404 0.006068762618388293
103184566 -0.003249746666825496 0.006095216923172606
103214328 -0.0032531488970982 0.006128456304682086
103244090 -0.003263662096235447 0.006144579387569074
103273852 -0.0032592915132851367 0.006172408120581018
103303614 -0.0032595709657518373 0.006202329444826194
103333376 -0.003260990698132971 0.0062264908503488784
103363138 -0.0031780772675904937 0.006209203837003079
103392900 -0.003095520227600859 0.006196347801389904
103422662 -0.0030160813313140373 0.006182862126463535
103452424 -0.002935990220551664 0.0061692496588597635
103482186 -0.0028543266892647507 0.006146070881950606
103511948 -0.002773986368995007 0.006131067365749153
103541710 -0.002696509011459709 0.0061102752833487595
103571472 -0.0026221491347148134 0.006096268565240415
103601234 -0.0025538594214635883 0.0060676290755873555
103630996 -0.002562087766858167 0.006062581701773891
103660758 -0.0025453893412880095 0.006050647608553692
103690520 -0.002655584615169826 0.0060590629627109115
103720282 -0.002711325981375188 0.006057924186656816
103750044 -0.0027516627074835485 0.006050686241920679
103779806 -0.0028077328915566313 0.006046284318486774
103809568 -0.0028525896292458295 0.006039367914129486
103839330 -0.0029072237493410614 0.006030313305228966
103869092 -0.0029506640731432505 0.006022915644454669
103898854 -0.0030015628130310758 0.006022863509744181
103928616 -0.003044092405147863 0.006049350517202196
103958378 -0.0030804327641984213 0.006072301378154798
103988140 -0.003116820225946947 0.006098110573633165
104017902 -0.0031634119313815926 0.006119624769271974
104047664 -0.003200777855520329 0.006144321064942837
104077426 -0.0032471181091578644 0.006170580983761799
104107188 -0.003285451309374833 0.0061914304549114405
104136950 -0.0033289545491424506 0.006212503041738452
104166712 -0.003370025708883852 0.006237824141401291
104196474 -0.0033611207310500703 0.006281948347944357
104226236 -0.0033536205160545145 0.006318815361459548
104255998 -0.003333620813950527 0.006364343639899423
104285760 -0.0033249975158683126 0.0064047681846236
104315522 -0.003307549032140967 0.006449446092323983
104345284 -0.0032973848641001217 0.006485721067792997
104375046 -0.0032804395206013593 0.006530024646734339
104404808 -0.00326234343780281 0.006573581682908862
104434570 -0.0032471506697467735 0.0066143384637948575
104464332 -0.0032391084193189165 0.006588376209167689
104494094 -0.003240057707975701 0.006533803856138526
104523856 -0.0032465767942436077 0.006478348321039863
104553618 -0.0032382998992633665 0.006416648029067981
104583380 -0.0032410340265071305 0.006362726911834446
104613142 -0.003232747584796489 0.0063068123649134954
104642904 -0.0032429580978029014 0.006252236449513127
104672666 -0.0032301084239181217 0.00619864940955428
104702428 -0.0032238955399357836 0.006138352895532584
104732190 -0.0032238183770418867 0.006127194748717738
104761952 -0.003195795110560885 0.00619445435221456
104791714 -0.003173682232091265 0.0062614303087329196
104821476 -0.0031469708762261045 0.0063277375771444684
104851238 -0.003121240540869768 0.0064040999310065305
104881000 -0.0030966411525118003 0.006471578009570835
104910762 -0.0030725662695611305 0.006537580037882421
104940524 -0.0030424718003685476 0.0066080082948505574
104970286 -0.0030163459089776736 0.006684175296127344
105000048 -0.002987069931722081 0.006756350067705461
