# HZ S RI R 50
90000000 0.0005276599995963902 0.004510130515735505
90029762 0.0005766381373063397 0.004523983583189161
90059524 0.00038955418038580175 0.004520364725462579
90089286 0.0005257114591685295 0.004540571352684829
90119048 0.0003830944522726354 0.004536548369673239
90148810 0.0005194072743557332 0.004561110097196132
90178572 0.0005201412259497918 0.004571959963706932
90208334 0.0005636525075007558 0.004578094753287596
90238096 0.00037950859795803115 0.004569862456583739
90267858 0.0005155254106264515 0.004588814049584213
90297620 0.0005307298074171844 0.004549437933267616
90327382 0.0006008981395468925 0.0044908946918745096
90357144 0.0005853465692838203 0.0044223280626228285
90386906 0.0006521855540201451 0.004363892969503153
90416668 0.0005089927535455586 0.004288908117419108
90446430 0.0006612484882936032 0.004237949555284531
90476192 0.0007205032257270411 0.004180291811002099
90505954 0.0007441705355843312 0.004117814194702045
90535716 0.0007291113396956545 0.0040526287825800355
90565478 0.0008009480582927718 0.004003850330647232
90595240 0.0008073393495094841 0.00398035420287703
90625002 0.0008560444247251706 0.003955286710712752
90654764 0.0009357889787282008 0.003935558657321977
90684526 0.000980881421964615 0.0039004439211606655
90714288 0.000988179600338232 0.003875059813891734
90744050 0.0010333838751511498 0.0038432260798424234
90773812 0.0011122743376938103 0.0038176160897306884
90803574 0.0011226131238745065 0.0037841558731019345
90833336 0.0010882216761868406 0.0037620004947918114
90863098 0.0012248147470700287 0.0036913056571111188
90892860 0.0012123447144843575 0.0036345309987506607
90922622 0.0012742984533632474 0.0035733003447339447
90952384 0.0012930993636372664 0.0035129083199175746
90982146 0.001281664642892425 0.0034554816904546998
91011908 0.0013341969699963323 0.0033923981470919107
91041670 0.001319535365221453 0.0033364167157020354
91071432 0.0013412380825582244 0.0032738845038686763
91101194 0.0012650828319426904 0.0032233248983171937
91130956 0.0013978781329899864 0.0031777390180561735
91160718 0.0013710357902618282 0.0031625306644264876
91190480 0.0013736335516659655 0.0031414601344832652
91220242 0.0012769814233631043 0.0031232016749726827
91250004 0.001372475018848307 0.003098880849927027
91279766 0.0012875228456371893 0.003074511076692084
91309528 0.0014029714094303718 0.0030415279206272763
91339290 0.0013749604231417284 0.003018002818966947
91369052 0.0014008035979929654 0.002980829732405337
91398814 0.0012958612424186589 0.0029505653408961733
91428576 0.0013751235461591396 0.002867768468980652
91458338 0.0013848246523069496 0.0027906484065049297
91488100 0.0013855706934924902 0.0027308484586558365
91517862 0.0013793449520925804 0.0026543563677801103
91547624 0.0014118520449243324 0.002575671797035171
91577386 0.0014156425760480918 0.002505183942002884
91607148 0.0013906243751026055 0.0024315284997797823
91636910 0.0013856799852960263 0.002357976196469102
91666672 0.0013983865670828173 0.002269276717047778
91696434 0.0014056432828844162 0.0021897730945208394
91726196 0.0014397975526204833 0.00209234677520519
91755958 0.0014784685865257097 0.002007436921188424
91785720 0.0014802434516616306 0.0019229965339221122
91815482 0.001521192686940301 0.0018231934226339355
91845244 0.001529029771060361 0.0017265753104685239
91875006 0.0015272737899158562 0.0016338465270269316
91904768 0.0014909959917444988 0.0015496473614672389
91934530 0.001522760924757094 0.00142586838365961
91964292 0.0015133296422666627 0.00135342619294913
91994054 0.0015024490917143053 0.0012695843655272543
92023816 0.0014314635450693226 0.0011965122373537088
92053578 0.0014289958031933278 0.0011089999341198393
92083340 0.0014054413068402332 0.0010262806113921009
92113102 0.0013771983504364095 0.0009426377424788365
92142864 0.0013263614244751088 0.000865806532734659
92172626 0.0012911440347400226 0.0007497950123983345
92202388 0.0012324694119531618 0.0006866422524479747
92232150 0.0011848280878086783 0.0005896476946608804
92261912 0.0010625298548193381 0.0005570359382976216
92291674 0.0010202989805234177 0.0004114486230345072
92321436 0.0009497811402863211 0.0003129677605692655
92351198 0.0008662783914056919 0.00021885982090606623
92380960 0.000796545839086395 0.00013568763786276795
92410722 0.0007123359185385918 4.528035701356898e-05
92440484 0.0006155189871284291 -2.6873119906275787e-05
92470246 0.0005275145280712667 -0.000111929730287415
92500008 0.0004459401980789015 -0.00019961201780503614
92529770 0.00035221354309066785 -0.0002906403937890969
92559532 0.0002696707292445699 -0.0003533343864505926
92589294 0.00017761360076953478 -0.00043867983620335773
92619056 6.964578435218346e-05 -0.0004956494121190428
92648818 -3.510597212663435e-05 -0.0005912319092057743
92678580 -0.00011966023197426108 -0.0006575250861819433
92708342 -0.00025505187477388295 -0.0007240961146124657
92738104 -0.00036513261190947036 -0.0008036670056208159
92767866 -0.00035293482298042557 -0.0010038342437578283
92797628 -0.0005997690148622822 -0.0009091931560977749
92827390 -0.0007132006313377651 -0.0009817728147552445
92857152 -0.0008705426191147469 -0.0010186166910050255
92886914 -0.0009669241659739455 -0.0011538563149945925
92916676 -0.0011621168884156092 -0.0010678493436725865
92946438 -0.0012962500059512242 -0.001138485780998264
92976200 -0.001447759183495662 -0.0011636230487519835
93005962 -0.0015686071638192532 -0.0012858253028585746
93035724 -0.0017627253178613854 -0.0012201843086191654
93065486 -0.001898938734503955 -0.0012844112371051548
93095248 -0.0020803361333828554 -0.0011493439812343086
93125010 -0.0022360989791653596 -0.001199700081321215
93154772 -0.0023737224082009847 -0.0010564396656087746
93184534 -0.0025271022675616398 -0.0011308743155787617
93214296 -0.002682100204515 -0.000993105840991426
93244058 -0.002828089804135586 -0.001049151287167771
93273820 -0.002979720937575242 -0.0008371368021482189
93303582 -0.0031379292437854387 -0.000730332791967532
93333344 -0.0032369859138058274 -0.0005993921102626391
93363106 -0.003372082372154157 -0.0005762293246182929
93392868 -0.003483974508675279 -0.0005955155026930246
93422630 -0.003597284565519799 -0.0005681412400960818
93452392 -0.003726113676980481 -0.0004905016758987484
93482154 -0.0038162940300636157 -0.0005026661823447131
93511916 -0.003921432941643175 -0.00044376860789617815
93541678 -0.00401207053017164 -0.0003918200995642362
93571440 -0.004132727567680284 -0.00040483962398396513
93601202 -0.0042230170041072995 -0.00031414114055701003
93630964 -0.004307356362976901 -0.00023707651360691328
93660726 -0.004406994701234666 -0.00016249559515420423
93690488 -0.004473103932307738 -2.310349770070571e-07
93720250 -0.004583104303144278 9.439922531308832e-05
93750012 -0.004652222445531058 0.000254779116971497
93779774 -0.004697838812616163 0.00042659078504524465
93809536 -0.004846615089909042 0.000395601560030403
93839298 -0.004820557938635865 0.000642753246344747
93869060 -0.004867313903601744 0.000798769164633597
93898822 -0.004890229468751356 0.0009501048478166602
93928584 -0.004964194995817551 0.0010319688923515198
93958346 -0.004972963870138246 0.0011435725184140034
93988108 -0.005105496030399621 0.0010885857431259924
94017870 -0.005069911277685049 0.0012963308568660675
94047632 -0.005163041926822099 0.0012740969251722005
94077394 -0.0050733856071868595 0.0014896455577743798
94107156 -0.005117976686600954 0.0015633562922442378
94136918 -0.00512248647379712 0.0016758946584876154
94166680 -0.005163837651528238 0.0017328375706277927
94196442 -0.005465991090139765 0.0018475845145933091
94226204 -0.005889168087158256 0.0018968509926269807
94255966 -0.006134894091504164 0.002133433262040999
94285728 -0.0065887905796476525 0.0022424869890146615
94315490 -0.00706452546941426 0.0023632861507861414
94345252 -0.007587680388392137 0.0025294113616616326
94375014 -0.008231656725956982 0.0026245349479088963
94404776 -0.008939673486341554 0.0027151361481629476
94434538 -0.009801281645600115 0.0028028133874613524
94464300 -0.009606458485948243 0.0028117108685995033
94494062 -0.008802581028433476 0.002928047562165289
94523824 -0.008177795273270247 0.0029649699729823046
94553586 -0.0076267494691577556 0.0029349291382826195
94583348 -0.007086071192222414 0.002970876135085435
94613110 -0.00668559792537031 0.0029324156859873544
94642872 -0.006284299263893856 0.002910203468387342
94672634 -0.005905387121827118 0.00289939365609708
94702396 -0.005593055742566807 0.002874250153599587
94732158 -0.005380479921231211 0.0028388966310625326
94761920 -0.005327745741984859 0.002899575725471074
94791682 -0.005342715293808981 0.002892900494291789
94821444 -0.005213565030206522 0.002994571380387182
94851206 -0.0052302678794356435 0.003000178139917232
94880968 -0.0050864965323820024 0.0030797597408926056
94910730 -0.005058800805435331 0.0031148139126237337
94940492 -0.0049691859700084036 0.003160406506606439
94970254 -0.004989721747444349 0.003165069070561386
95000016 -0.0048749780306424455 0.003216924553752041
95029778 -0.0049644929807285375 0.0032353189303139657
95059540 -0.0049458060729678215 0.0033024209644041064
95089302 -0.004967433647768438 0.0033451597331540404
95119064 -0.004978690170995204 0.003397671744431646
95148826 -0.005064875843470198 0.003415373485362532
95178588 -0.0050516270851237825 0.0034781294100685654
95208350 -0.005088684910433599 0.0035185002202510686
95238112 -0.005107768728159027 0.003551557256912107
95267874 -0.00513621588951968 0.0035953874114518667
95297636 -0.005138409108463253 0.003644123805484282
95327398 -0.005135528936425276 0.0036757848762371793
95357160 -0.005150395686728569 0.0037219952890052703
95386922 -0.005130412647676127 0.0037521965020554477
95416684 -0.005127439548476376 0.003797104324222959
95446446 -0.005125233438179893 0.003822186471582581
95476208 -0.005121931742870697 0.0038693284333062377
95505970 -0.005124937131760068 0.003905812444833082
95535732 -0.005116064470682199 0.00393596127863532
95565494 -0.005082068591994406 0.00398147437230766
95595256 -0.005061439241490899 0.004041767699759644
95625018 -0.005040544626905934 0.00409355018947661
95654780 -0.005011375047648583 0.0041670696942781305
95684542 -0.004976440049314073 0.004219183318316126
95714304 -0.00495766330705961 0.004282663845109387
95744066 -0.004922748194122394 0.004328810698355698
95773828 -0.004906661364277108 0.004376451906062244
95803590 -0.004865460066149389 0.004434917633102666
95833352 -0.0048444999796501175 0.004491311218611053
95863114 -0.004771786694156643 0.004498577349858957
95892876 -0.0047266417670261416 0.004506266456503652
95922638 -0.004663633589257475 0.004499286150808316
95952400 -0.004615680609191122 0.004509544842861172
95982162 -0.004559772560616425 0.00450279859991677
96011924 -0.005391803209838571 0.004254370489916912
96041686 -0.004459267183458566 0.004498832975249078
96071448 -0.004402561963222258 0.004499307973216441
96101210 -0.004351595284270665 0.004503179055043247
96130972 -0.005196892516294829 0.004292624458023956
96160734 -0.004348090369755768 0.004560950572733847
96190496 -0.004345551866498923 0.004586773493207464
96220258 -0.0043586321937261144 0.00461529054928667
96250020 -0.00435340952763989 0.0046340303724163555
96279782 -0.004365560457230375 0.004673364283515408
96309544 -0.004367487363284379 0.0046970870956857345
96339306 -0.004376334655078197 0.004722058237460971
96369068 -0.004382648528184511 0.0047531663081643435
96398830 -0.004378403858877233 0.004785632615692216
96428592 -0.004356603129539423 0.004842597565456154
96458354 -0.004544391079188963 0.004914088421869405
96488116 -0.0036811904030646897 0.005089728352922145
96517878 -0.004140197337764613 0.004983600430678856
96547640 -0.004317997424460592 0.005037050909601024
96577402 -0.004307412036768575 0.005085525079440716
96607164 -0.004284257606499264 0.005139361347534295
96636926 -0.0035234149704516564 0.005312697126839666
96666688 -0.0041724876162386095 0.005237048333892598
96696450 -0.0042308919622878706 0.005200336994446369
96726212 -0.0042097484565566 0.005163914553818546
96755974 -0.00500060087418329 0.00496907605797523
96785736 -0.0041443824720724465 0.005079830898758543
96815498 -0.004917892170219546 0.004889405393958999
96845260 -0.004113440500020561 0.004990707450222006
96875022 -0.004062858314701811 0.00497119928961794
96904784 -0.004052492917582925 0.004927827148366243
96934546 -0.003972416823917946 0.004913101099710913
96964308 -0.004017444137484081 0.0048794700052354366
96994070 -0.004045213726716924 0.004872790213282279
97023832 -0.0033874855747634677 0.0049758380436790445
97053594 -0.004096291440179624 0.004838589205490936
97083356 -0.004134690057308723 0.004812081857114046
97113118 -0.004874773658625545 0.004629319385432739
97142880 -0.004165244272106047 0.004783764464371907
97172642 -0.0035168713887866842 0.004903332662401238
97202404 -0.004231754908064893 0.004749040414204504
97232166 -0.0042232291790945415 0.004747564842138055
97261928 -0.004219412057094732 0.00477238450093436
97291690 -0.004187606634905592 0.004808409104018714
97321452 -0.004166389809022198 0.004837051398735486
97351214 -0.004168789142377434 0.0048704383106818955
97380976 -0.004149110266878066 0.004889000973541035
97410738 -0.00410732744491925 0.00492035426518591
97440500 -0.00409450960371212 0.004955509275490667
97470262 -0.0034088621591281992 0.005102506666809024
97500024 -0.004057802573245912 0.005004502660210013
97529786 -0.004069225830472242 0.005031412659998089
97559548 -0.003376981737723418 0.0051963369351740495
97589310 -0.004037130940794455 0.0051063908976410515
97619072 -0.003960284600722129 0.005152416914995046
97648834 -0.0040545393948954005 0.005174682675090879
97678596 -0.004023060267131132 0.005212283917851637
97708358 -0.0033469728191220616 0.005339376132371526
97738120 -0.004012626000201318 0.005268788872975676
97767882 -0.0040038122642983565 0.0053192715103821085
97797644 -0.004660604761965845 0.0052105910258797685
97827406 -0.003924385847196491 0.0053352083522608465
97857168 -0.0038312856726688245 0.005346271495550234
97886930 -0.0037636296484591823 0.00535064226653851
97916692 -0.004367423622965494 0.00525062256631229
97946454 -0.0036447506187211568 0.0053670801347672666
97976216 -0.004228050990878449 0.005276009262961335
98005978 -0.0029245174919184914 0.0054664729525764275
98035740 -0.003475548767905218 0.0053821542839453005
98065502 -0.003479542319843737 0.005390974625276818
98095264 -0.0035455492728820523 0.005405869861890082
98125026 -0.0035793997797668345 0.005442496879438944
98154788 -0.0030194778520958635 0.005548423031198252
98184550 -0.003703365388030409 0.005485927762951467
98214312 -0.003763456711086318 0.005510393595145087
98244074 -0.0031870027327953513 0.0056202280163393245
98273836 -0.003934140971777629 0.005542591704846173
98303598 -0.003963419493392704 0.005569954756331549
98333360 -0.004032585260500642 0.0055819290064706055
98363122 -0.004066332092950214 0.005556970588598631
98392884 -0.004026787089379376 0.0055280635755080845
98422646 -0.004049260202371593 0.005490799664686136
98452408 -0.004047085916510666 0.005462087187160624
98482170 -0.004004197919107353 0.005437830975405483
98511932 -0.004030529858212775 0.005396759732228609
98541694 -0.0033469422144495665 0.0054841758595362
98571456 -0.003971692051624273 0.005352233323633109
98601218 -0.0046091707479190705 0.005210128190358528
98630980 -0.003932413010594871 0.005335736536458385
98660742 -0.0038832630191965147 0.005366993991892915
98690504 -0.0032027523872957507 0.005486565516947379
98720266 -0.00442152954200463 0.005328637094051586
98750028 -0.003741112733374982 0.005459494985568837
98779790 -0.003684721426480555 0.005483281083788416
98809552 -0.0036787825275064814 0.0055064819826385674
98839314 -0.003581506004707813 0.005539935061470434
98869076 -0.0035764297972596766 0.0055622840624812535
98898838 -0.004122408416637082 0.005513404079496704
98928600 -0.0035210471460403 0.005607629122913028
98958362 -0.004144032065276411 0.005548970649151323
98988124 -0.0035950045575176667 0.005624928814304273
99017886 -0.003573391963505087 0.00565242815343911
99047648 -0.003626747348910424 0.005654320640470337
99077410 -0.00359872318733861 0.005675673703562685
99107172 -0.0036109982695657654 0.0056855000870489015
99136934 -0.0036753281906907825 0.005701022747080115
99166696 -0.0036925802077421204 0.005717382410946388
99196458 -0.0036668554165841245 0.00570082427270945
99226220 -0.0036700889150736047 0.005677983225277017
99255982 -0.0036461557075012927 0.00564069565757884
99285744 -0.0037714361152678347 0.005614688392765608
99315506 -0.00391543100567342 0.005627216547713935
99345268 -0.0037559002815851636 0.005571900823551731
99375030 -0.003723329271589336 0.005552550583356076
99404792 -0.0037798433864562097 0.005522656186786953
99434554 -0.0037896353222735897 0.00550263707992429
99464316 -0.003689591423082371 0.005519441213964523
99494078 -0.003664097342024135 0.0055615888711925115
99523840 -0.0035341487452744806 0.005607364532105876
99553602 -0.0034635325040126824 0.005640402370649818
99583364 -0.003951269504753857 0.0056124906198207715
99613126 -0.002717240223389542 0.005776080773572705
99642888 -0.0032357286991813615 0.005749685150402929
99672650 -0.003158025673490039 0.005787611791721368
99702412 -0.003618698759354839 0.00576228046502651
99732174 -0.0030422481665694392 0.005828778197139805
99761936 -0.002937389593877104 0.005814440176680325
99791698 -0.003177313995067833 0.00577438478830473
99821460 -0.003163053060082781 0.005750199141158004
99851222 -0.0032553054936127817 0.00571417102956167
99880984 -0.003778335250698983 0.005639114566469387
99910746 -0.0032763075863544945 0.005662280939040754
99940508 -0.0038603850114332693 0.005582050910729532
99970270 -0.0033488280152045415 0.005607607154248885
100000032 -0.0034012098034215577 0.005589610072613035
100029794 -0.0033712891665861984 0.005580086714858457
100059556 -0.0033597635989498515 0.005583938270309202
100089318 -0.0033383854320048496 0.0055854997597884195
100119080 -0.003331951344183516 0.005590328026692947
100148842 -0.003318167591587301 0.00559516182440211
100178604 -0.003301425562304831 0.005597275371840844
100208366 -0.0032888390489184084 0.0055992872190458705
100238128 -0.0032723640586959455 0.005602956383722701
100267890 -0.0032592818812964323 0.005610540323344256
100297652 -0.0032579302866587736 0.005605538927834721
100327414 -0.0032641538601142473 0.005609371736319668
100357176 -0.0032643219954021636 0.005606271992741089
100386938 -0.003270912629722947 0.005609237353908816
100416700 -0.0032691470284875366 0.005606899073526184
100446462 -0.0032820605055805174 0.00562057667059345
100476224 -0.0032874040879911273 0.005611729623520965
100505986 -0.003287451735413258 0.0056168394845198056
100535748 -0.00329868511663041 0.005614479246742681
100565510 -0.003313377551802925 0.005635501814243598
100595272 -0.0033590624623093417 0.005673349285542463
100625034 -0.003402852359713756 0.005717929193908811
100654796 -0.0034524167949824595 0.005751392461456671
100684558 -0.003493338516181966 0.005792982568244066
100714320 -0.003543803899346941 0.005829771847120647
100744082 -0.0035934210995610463 0.005876473954026622
100773844 -0.0036458970562857603 0.00592021588956984
100803606 -0.0036952498599657976 0.005962758603207235
100833368 -0.0037511294551957485 0.006007997252116779
100863130 -0.003705846948813255 0.005985196327041365
100892892 -0.003661085758339145 0.005965785969559223
100922654 -0.003607805072112576 0.005944052223051681
100952416 -0.0035647185393964027 0.005928915940198037
100982178 -0.0035235039663319436 0.005906568231073752
101011940 -0.0034695619163704486 0.005888256487721474
101041702 -0.003427918360517339 0.005869576136514362
101071464 -0.0033858678490503494 0.005840589856100103
101101226 -0.0033352050839482767 0.005829730448234457
101130988 -0.0033365820988489167 0.005817859895652523
101160750 -0.0033510209865741116 0.005805783905779009
101190512 -0.003356733340715058 0.005793941344144371
101220274 -0.00336473315235675 0.005786773293461387
101250036 -0.0033710603691013796 0.005781037888315787
101279798 -0.003380577859929649 0.0057717029523796926
101309560 -0.0033886848829401822 0.005768755507737252
101339322 -0.003394097980283943 0.00576210701815673
101369084 -0.003399826623957849 0.005746204080331346
101398846 -0.003380158361987686 0.0057584441247552935
101428608 -0.0033229111179735368 0.005808356622823064
101458370 -0.0032601448984096986 0.005860193192219149
101488132 -0.003205512563214221 0.005898414226456402
101517894 -0.0031323406790192427 0.00595596494970943
101547656 -0.003073504723079699 0.005991523646209997
101577418 -0.003008244242966454 0.006035754000602512
101607180 -0.002937867879648459 0.006083189357394077
101636942 -0.0028728331790718606 0.006120444665715481
101666704 -0.0027911958028578572 0.006162101842964597
101696466 -0.002903919612571283 0.006125864452954009
101726228 -0.002992236066453317 0.0060869902980091204
101755990 -0.003096595626888616 0.0060417807502171775
101785752 -0.0031953293239827896 0.005991442249789441
101815514 -0.0033061563341375616 0.005944669058206348
101845276 -0.003385982008396541 0.005882196646914888
101875038 -0.0034841407875561108 0.005824895419438374
101904800 -0.0035823920258881044 0.005766154047082217
101934562 -0.0036641650841197195 0.005704802612644803
101964324 -0.0036325363649820385 0.005701985523699153
101994086 -0.0035522631866042424 0.005739302266012997
102023848 -0.00346326321131943 0.005771168573798496
102053610 -0.003378965129061255 0.005800341171105993
102083372 -0.003291401038169896 0.00583313510368683
102113134 -0.003207430718038326 0.0058627080611307735
102142896 -0.003117966698002908 0.005879730224727968
102172658 -0.0030428394963592817 0.00589968577315792
102202420 -0.002948054372873272 0.005917036845282639
102232182 -0.002915738130251112 0.005948446301317551
102261944 -0.002995628719511813 0.0059832223241098395
102291706 -0.003093654229335459 0.00601668021051161
102321468 -0.0031766342322089546 0.006042904133799764
102351230 -0.003271076761637724 0.006074719882243687
102380992 -0.003366503059150138 0.006108061359048526
102410754 -0.003455737122512476 0.00613167054644267
102440516 -0.003559028624461413 0.006159818056419514
102470278 -0.0036691768935862147 0.006191819781104939
102500040 -0.0037739507138700706 0.006204520876144284
102529802 -0.003724190156525136 0.006211274128334788
102559564 -0.0036590705687993587 0.00622445370293956
102589326 -0.0036094862658535604 0.00623213578654894
102619088 -0.0035618493887776244 0.0062415311792468915
102648850 -0.0035050257258468906 0.006251661891618052
102678612 -0.003454199469583096 0.006255484078051977
102708374 -0.0034011548262562253 0.0062652265526943855
102738136 -0.0037534491432308524 0.006280504376105061
102767898 -0.0032987062915936158 0.0062756565240356795
102797660 -0.0032728352586955277 0.006257041925533175
102827422 -0.003274090319922132 0.006221816115605048
102857184 -0.003273642632884691 0.00619356464719387
102886946 -0.003258160619752459 0.006165479737772499
102916708 -0.0032530639835454864 0.006130321490496427
102946470 -0.003250065285066964 0.006102355131502845
102976232 -0.0032376328828493677 0.006071951893500866
103005994 -0.0032272822144249307 0.00604420520122516
103035756 -0.0032307908381255528 0.006008511331830415
103065518 -0.003227884078336111 0.005997298840112162
103095280 -0.003225828114697119 0.0060242247910856864
103125042 -0.0032317957619942667 0.006041789143762499
103154804 -0.0032303725926765 0.006073002599564257
103184566 -0.003234791457995644 0.006095972911766675
103214328 -0.003236230679656436 0.0061212981137044485
103244090 -0.0032389905058982514 0.006142174115466801
103273852 -0.0032498497527274797 0.006177764318001201
103303614 -0.0032541016873473935 0.006199935625867509
103333376 -0.003250141969905703 0.006220658340945414
103363138 -0.0031695644739431375 0.0062160707603148135
103392900 -0.0030828490319208665 0.00619963678164871
103422662 -0.0030007532768304666 0.006189097168505094
103452424 -0.0029220008170408093 0.0061643741601598
103482186 -0.0028452552206513293 0.0061489841661731895
103511948 -0.002766197970718557 0.006130595858377663
103541710 -0.002686608771523638 0.006106836296661864
103571472 -0.002613147177742833 0.006088446868291254
103601234 -0.0025469482866954402 0.006070261628555831
103630996 -0.002546368574004191 0.006066715683267332
103660758 -0.0025950058743754918 0.006065922954218241
103690520 -0.0026444006754225693 0.006056904363494642
103720282 -0.0026935276835269796 0.00605383619744591
103750044 -0.00274111342769873 0.006054326565559218
103779806 -0.002796607164953138 0.00604295074686115
103809568 -0.002846618355321671 0.006036652843700477
103839330 -0.002892232815624687 0.006028075886258723
103869092 -0.0029427422478308677 0.006022239030647939
103898854 -0.00299016797615373 0.006028867272004499
103928616 -0.0030280305263004556 0.006049064823994482
103958378 -0.0030653120033231726 0.006076878465849038
103988140 -0.0031055418005750397 0.006103882272894464
104017902 -0.0031444788666382417 0.006123618831206895
104047664 -0.0031866229884942943 0.006146534220662022
104077426 -0.0032309049849464097 0.006165764501994494
104107188 -0.003270033772576696 0.006198671846203052
104136950 -0.0033193382676998027 0.006220300072820529
104166712 -0.0033580893508451818 0.006244577078197231
104196474 -0.0033483620081839905 0.00628408327291608
104226236 -0.0033340328475510344 0.006322254225627339
104255998 -0.0033211061286648794 0.006367827763864907
104285760 -0.0033073878598575603 0.006402711833101785
104315522 -0.00329509862710586 0.006450092721497419
104345284 -0.0032772256296059936 0.00649538255367225
104375046 -0.0032612063089061086 0.006536554604897507
104404808 -0.0032486435308449247 0.006579286081196517
104434570 -0.003233778058483336 0.006623709824772315
104464332 -0.0032216433173005966 0.006600193918868871
104494094 -0.0032270270303292347 0.006531979428307004
104523856 -0.003223961537191968 0.006476317839188461
104553618 -0.003224246472163613 0.006417269371011705
104583380 -0.003223201698230056 0.006366487477000121
104613142 -0.0032164197519295914 0.006306203907450053
104642904 -0.0032173255269323776 0.006257262698643085
104672666 -0.0032138375904148947 0.0061951732495012755
104702428 -0.00320809870418153 0.0061485216315858866
104732190 -0.0031974369229639493 0.006132345004284392
104761952 -0.0031862582925692895 0.006201209542308061
104791714 -0.0031573746905656356 0.006270532831168235
104821476 -0.0031375148796796673 0.006344121403804689
104851238 -0.003101669769802888 0.006403350933343873
104881000 -0.0030804724720560044 0.006475982930306013
104910762 -0.003053307990703422 0.006548032878511873
104940524 -0.003027543030102332 0.006619736853795232
104970286 -0.0029998533890580117 0.0066879850961472816
105000048 -0.002966225762345195 0.00676118556749142
