# HZ S RI R 50
90000000 0.0005675558097924136 0.004473490443669156
90029762 0.0006154418898621093 0.004489841315122058
90059524 0.00042841849847360686 0.0044853164027393744
90089286 0.0005667634699995603 0.004507754832995398
90119048 0.0004303854185705028 0.004502618781624442
90148810 0.0005694917241459291 0.004517801145359857
90178572 0.0005641021764254138 0.004530872529166038
90208334 0.0006121773826715998 0.004538971102752694
90238096 0.000422944592796083 0.004532870013580806
90267858 0.000565021052645602 0.004543855935370911
90297620 0.0005771775869626498 0.004509063738214641
90327382 0.0006481093502667939 0.004445429631815023
90357144 0.0006309713555242788 0.004381448420502478
90386906 0.0007025274819495391 0.004317303146700389
90416668 0.0005519179998064916 0.004240761426035054
90446430 0.0007049126591364287 0.004195555550451861
90476192 0.0007681258875435014 0.0041366716020883165
90505954 0.0007936280621983166 0.004070274112641008
90535716 0.0007736774952805742 0.0040064024549265375
90565478 0.0008418427606974269 0.003958529921430526
90595240 0.00085339153529701 0.0039344562711220495
90625002 0.0008944944601674788 0.003902570725586275
90654764 0.0009792824804674962 0.003882880481242282
90684526 0.001020989500693689 0.0038449342389408944
90714288 0.0010251176562179637 0.0038229890812201926
90744050 0.0010763876789830762 0.0037845775793100395
90773812 0.0011638198553095337 0.0037510091788340813
90803574 0.0011626369818720935 0.003720798043692028
90833336 0.0012435139532412484 0.0036864776681889825
90863098 0.0012694887252653075 0.003622751458317191
90892860 0.0012520024024389813 0.0035670697491891118
90922622 0.0013106550308962445 0.0035143837356025258
90952384 0.001331017577519371 0.0034492256108878292
90982146 0.0013162122183070502 0.003384031866024593
91011908 0.0013739083837836339 0.0033293607707878584
91041670 0.0013586922337208349 0.0032624873914230807
91071432 0.001380092145375203 0.0032047524001249665
91101194 0.001304766099249951 0.0031438155089170794
91130956 0.001433984054243801 0.0031032525407691442
91160718 0.0013987600123429784 0.003087591089265552
91190480 0.0014088580450851427 0.003061394837888128
91220242 0.0013159621586669758 0.003049082456176649
91250004 0.0014000298705565905 0.003009756284304555
91279766 0.0013279569601771402 0.002987276560695868
91309528 0.0014389299883405624 0.0029566837731807914
91339290 0.001414241885863708 0.0029206960766107173
91369052 0.0014360708903758486 0.0028826332073090604
91398814 0.0013268448636965424 0.002845800106261057
91428576 0.0014103675278414063 0.002764688485891518
91458338 0.0014332560773029216 0.0026873769452640133
91488100 0.0014110904445164825 0.00262342504079006
91517862 0.0014172721674993957 0.0025456413453827822
91547624 0.0014423168715125135 0.0024654373892238363
91577386 0.0014333407041464902 0.0023936701532194667
91607148 0.0014079601193314043 0.0023147238780693246
91636910 0.0014016818332097598 0.002236109298153898
91666672 0.0014194409041046632 0.002154648470641254
91696434 0.0014299993948194679 0.0020652949856998495
91726196 0.0014724841849791063 0.001974332177223844
91755958 0.0014917427260626099 0.0018751358271432146
91785720 0.0014957488716090283 0.001786260868428912
91815482 0.0015204891973561708 0.0016940328464427287
91845244 0.0015379634939829492 0.0015833350519853303
91875006 0.0015148232771262512 0.0014984554832183149
91904768 0.0014835363927694107 0.0014048782651420032
91934530 0.0015139541678305384 0.0012935426061954447
91964292 0.0014948491901121284 0.0011960778174570797
91994054 0.0014727008980016812 0.0011081057284530109
92023816 0.001416868859808104 0.0010471785520688077
92053578 0.0014164056365859286 0.0009568422108443614
92083340 0.0013664911092295747 0.000863005856398148
92113102 0.001335230808164479 0.0007640504861454393
92142864 0.001289496663963842 0.0006923577593364009
92172626 0.0012414328409109342 0.0005981388595226604
92202388 0.0011784984884531593 0.0005207009680254013
92232150 0.0011374369548670723 0.00042642565102271563
92261912 0.0010450273504523384 0.00031534049158304505
92291674 0.0009664331663669706 0.00023734262467857778
92321436 0.000880565275244591 0.00013507751749628307
92351198 0.0007898417313711895 4.889136608761186e-05
92380960 0.0007239743920779558 -5.3314562966802134e-05
92410722 0.0006113016119046007 -0.00013138431589799064
92440484 0.0005211468374682398 -0.00020946617388297587
92470246 0.0004226375433918184 -0.00028169252063129404
92500008 0.00033238858360993705 -0.0003906679960356957
92529770 0.00023140512122810943 -0.0004553966349000304
92559532 0.00013937338383774686 -0.000522590285246478
92589294 3.818074345219585e-05 -0.0006085534907336494
92619056 -6.279708191647306e-05 -0.0006604670851600202
92648818 -0.00017041453610554158 -0.0007236099302976305
92678580 -0.00028514625884992116 -0.0008136925925089663
92708342 -0.0003830068533142978 -0.000893176400810927
92738104 -0.0005038290855461599 -0.0009507531496678485
92767866 -0.0006238025645270562 -0.0010320933574528663
92797628 -0.0007739637304889193 -0.0010609931191070982
92827390 -0.0008960070455628445 -0.00112910893837011
92857152 -0.001068062403772982 -0.0011781927702140592
92886914 -0.0011519607777452452 -0.0013030427801688494
92916676 -0.0013726494798660368 -0.001213658932943171
92946438 -0.0015113942300758422 -0.0012675405278982455
92976200 -0.0016731854618987527 -0.0012763358434745612
93005962 -0.001820223550605526 -0.001398391807841429
93035724 -0.0020301668291812336 -0.0013141769770398605
93065486 -0.0021454028005577666 -0.0014160283561867812
93095248 -0.0023480804041423496 -0.0012285735499898847
93125010 -0.0025049881243436023 -0.001220795234658232
93154772 -0.0026739261705302805 -0.0010998969044854392
93184534 -0.002787568583936461 -0.0010591306887532891
93214296 -0.0029827359456149 -0.0010014470130517827
93244058 -0.0031043991572473864 -0.0010618014276899857
93273820 -0.003261547868341669 -0.0008249958497369193
93303582 -0.0033880364812441223 -0.000739255211661685
93333344 -0.00352967943848934 -0.0005624184058029197
93363106 -0.003639340154918523 -0.0005336947453956644
93392868 -0.003767048979104716 -0.0005526182463549204
93422630 -0.003898512257822728 -0.0004960352607897606
93452392 -0.003981146232164458 -0.0003990649962245429
93482154 -0.004112502888241213 -0.0004255788305277256
93511916 -0.004188098004082156 -0.0003302951099514178
93541678 -0.004295749540407243 -0.00029663848771776727
93571440 -0.004409641092464289 -0.0003152903472400761
93601202 -0.004473461766563719 -0.00022641184415624936
93630964 -0.004550066830448583 -0.0001356526611127798
93660726 -0.00466702309356794 -5.38663132448148e-05
93690488 -0.004714865015687913 0.00013708490834208104
93720250 -0.0048106835135582416 0.00023909210918203298
93750012 -0.004878751060725562 0.00036298998847343156
93779774 -0.0049177224672069045 0.0005584129086946112
93809536 -0.005049518829940178 0.0005447292741606258
93839298 -0.005009534463500865 0.0008208851484745946
93869060 -0.005061769273296406 0.0009653223379105854
93898822 -0.005056316283676231 0.0011283865743294233
93928584 -0.005134050325011488 0.0011748503329117677
93958346 -0.005129158480993771 0.0013362921238592956
93988108 -0.0052692220954933455 0.0012848492280053843
94017870 -0.005209009693787944 0.0014711589599366427
94047632 -0.0052989280100637385 0.001464146373328866
94077394 -0.005203336307035158 0.0016877474277522276
94107156 -0.0052388008579166475 0.0017385927016737247
94136918 -0.005231284959504887 0.0018634950388867312
94166680 -0.00526128944004952 0.0019374358645462412
94196442 -0.0055717951580404905 0.002063880171432924
94226204 -0.0060032486826943265 0.0020994505675746263
94255966 -0.006238574658874019 0.002370252356918406
94285728 -0.006704643409923548 0.0024732431154129144
94315490 -0.007190004223927812 0.0026023850550522393
94345252 -0.007701358775400152 0.002775343379116108
94375014 -0.008363720088298277 0.0028812597492324904
94404776 -0.009067831243036052 0.003052417796892347
94434538 -0.009925330624899567 0.0030941948231152662
94464300 -0.00971913067239128 0.0031163000796967212
94494062 -0.008937282255465756 0.003196058907608995
94523824 -0.00825031991683591 0.0032128799040129718
94553586 -0.007715538210144868 0.0031797915597152238
94583348 -0.007146075177251196 0.003179606030457648
94613110 -0.006734504396500377 0.0031279206190701655
94642872 -0.00633113790764744 0.0031054693532014243
94672634 -0.005927962959657258 0.003092119902936372
94702396 -0.005601625488201649 0.0030419589934599723
94732158 -0.005404756622772259 0.0030067571024361447
94761920 -0.005347202990433441 0.003054823685423953
94791682 -0.005356288389933657 0.0030696553214953925
94821444 -0.005235786401133735 0.003136372320931707
94851206 -0.005232576999779735 0.0031453419427413198
94880968 -0.005092910866305786 0.0032331090587598196
94910730 -0.005052371555938578 0.0032495864990484446
94940492 -0.004974122486649067 0.00330373449085112
94970254 -0.004986639699128323 0.0032963201354301286
95000016 -0.004881256136782494 0.003356256487197572
95029778 -0.004945234272002355 0.0033734285411510263
95059540 -0.004933507597341338 0.003438467935991671
95089302 -0.004954511599717332 0.003482851506120854
95119064 -0.004973328809140627 0.0035289443861378712
95148826 -0.005047902998948082 0.0035473994898010093
95178588 -0.005039811297797864 0.0036013868166029435
95208350 -0.005072534097195403 0.003639126469079647
95238112 -0.005077217908518274 0.003694635041069497
95267874 -0.005123578326639857 0.0037239726097482314
95297636 -0.005116281934001838 0.003768066833946987
95327398 -0.005107735656038821 0.003798242283754929
95357160 -0.005110244242679657 0.0038483340628938383
95386922 -0.00510637048003793 0.003883596726759895
95416684 -0.005093042707477242 0.003922497677241828
95446446 -0.00509376991212955 0.0039475421051680575
95476208 -0.005083856622329525 0.003986235101366414
95505970 -0.005083039317375478 0.004024180770781812
95535732 -0.005069078858636593 0.004066122376630831
95565494 -0.005059604570524007 0.0040989195615724824
95595256 -0.005035027719004132 0.004164276348731855
95625018 -0.005003448112611533 0.004213426396634128
95654780 -0.004977336472250696 0.004272076511236319
95684542 -0.004941346754576526 0.004331520758071692
95714304 -0.004911599294938237 0.004381600577055245
95744066 -0.004888477258959142 0.00443598928087517
95773828 -0.004862046577679339 0.004487167844897184
95803590 -0.004818473280508715 0.004544484008210497
95833352 -0.004793309027344703 0.004599566118854055
95863114 -0.004734420577322444 0.004591833610286206
95892876 -0.004679105681230588 0.00459788251672432
95922638 -0.004617078114302878 0.004596441193236435
95952400 -0.004570169750049065 0.004600797468823896
95982162 -0.004512452135833249 0.004590306410735601
96011924 -0.005335406486660145 0.00437322564293852
96041686 -0.004419151779274295 0.004591247310752965
96071448 -0.004364078484815483 0.004590114064984929
96101210 -0.004308770239100306 0.004590714309861151
96130972 -0.005150197484250811 0.0043965123083491665
96160734 -0.004303501578856496 0.0046404794972400845
96190496 -0.0043414270593029524 0.0046729929148604825
96220258 -0.004216698446730835 0.004700493595212605
96250020 -0.0042121375326985575 0.0047241399733575105
96279782 -0.004218418314083885 0.004747178189708701
96309544 -0.004319934180333275 0.0047763518175503355
96339306 -0.004225344861994254 0.0048058637141378405
96369068 -0.004234591880925721 0.0048403357615884
96398830 -0.004412380818914605 0.00488638395876019
96428592 -0.00430500390394004 0.004917135258202013
96458354 -0.004294366454094551 0.004958597211998509
96488116 -0.003540295971089587 0.005136752486612542
96517878 -0.004263154900976049 0.005063834675637088
96547640 -0.004243158094759512 0.005116805127259578
96577402 -0.004245883025794908 0.005151815789667538
96607164 -0.004218885696294226 0.0052054563310195544
96636926 -0.0034626092080822387 0.005363201768497791
96666688 -0.004213707099492561 0.005290537040362976
96696450 -0.004173152995754049 0.00525866081782698
96726212 -0.004149781330116177 0.005213606622625731
96755974 -0.004908640583672026 0.0050415781852369505
96785736 -0.004070929443054031 0.0051470890095312825
96815498 -0.004834329212737513 0.004969007596900236
96845260 -0.004038722209591944 0.005061312887700806
96875022 -0.004003485426971398 0.005031752365795003
96904784 -0.003996179386683943 0.0049917141114594315
96934546 -0.00391508288535037 0.004949444768573275
96964308 -0.003971850046792168 0.004922367037353739
96994070 -0.003992796524736044 0.004913024340882891
97023832 -0.003337316743617527 0.005011455184049813
97053594 -0.004035346630402685 0.004886455500077482
97083356 -0.0040801794578424 0.004859507079918703
97113118 -0.004821277217188482 0.0046945480765979665
97142880 -0.004110623953708726 0.004836425696798291
97172642 -0.0034776097411546958 0.004947519364851971
97202404 -0.004179550271285061 0.004793493652124881
97232166 -0.004174701572963528 0.0047878363697118126
97261928 -0.004161715629596296 0.004812632457819802
97291690 -0.004129066280237184 0.0048525555875854305
97321452 -0.004128184728150402 0.004875392053944168
97351214 -0.004117019449989325 0.004899600670359645
97380976 -0.004093071212465097 0.00492917085690022
97410738 -0.004064448727305162 0.004957292248988301
97440500 -0.004040800699868257 0.004993124966428377
97470262 -0.0033594800653267195 0.0051359645590123276
97500024 -0.004006925570312656 0.005051563260683875
97529786 -0.004026890496525782 0.005068755038710102
97559548 -0.0033249085875795823 0.005216281070608207
97589310 -0.0039793929533110785 0.005141067493018248
97619072 -0.003899929243296166 0.005185808137299668
97648834 -0.003995823531514068 0.005205428497807374
97678596 -0.003969084594384906 0.0052413657911176146
97708358 -0.0033002782015989483 0.005373333646438246
97738120 -0.00395797509148486 0.005305569095606441
97767882 -0.0039673219252677715 0.005319302338018096
97797644 -0.004617081300085343 0.005245285914222811
97827406 -0.0038842133445348677 0.0053591131045388745
97857168 -0.003788500300227596 0.005372080888417426
97886930 -0.0037283447195870442 0.005370780198995541
97916692 -0.004328368235304188 0.005273377087068089
97946454 -0.003613464329199328 0.005383095919046524
97976216 -0.004172640696333938 0.005303295642226762
98005978 -0.0028960853624680235 0.005479302469868195
98035740 -0.0034372282047193674 0.005398992460690731
98065502 -0.0034513082911196134 0.005404291565739768
98095264 -0.0035072532029253667 0.005427244145370204
98125026 -0.0035414662264717633 0.005461383788192087
98154788 -0.0029964968029264 0.005558495694932204
98184550 -0.0036761565187939924 0.0054988319433332475
98214312 -0.0037313706227956795 0.005511725990409894
98244074 -0.0031430487254775394 0.005631288814458475
98273836 -0.0039031594352618762 0.00555682406306697
98303598 -0.003945019628601439 0.005584685743943118
98333360 -0.003996414494400769 0.00560185373556331
98363122 -0.004040667314267431 0.00557280035151923
98392884 -0.003993837619129766 0.0055453969134706
98422646 -0.0040209600963496675 0.005509727605521406
98452408 -0.004008092190952163 0.005479039894426208
98482170 -0.003962499056830759 0.0054549455653386345
98511932 -0.0039965475265283865 0.005417502455622797
98541694 -0.003308543085437772 0.005507123775046256
98571456 -0.0039503519485956555 0.005370822770967332
98601218 -0.004586919676293502 0.005226500466098877
98630980 -0.003922868702064336 0.005351031687594139
98660742 -0.0038783643753109776 0.005373875361825342
98690504 -0.003197226783637388 0.005496487128636907
98720266 -0.0044105284934829545 0.005346831452598664
98750028 -0.0037307248488783764 0.005470059061179235
98779790 -0.0036622980457737034 0.005502170982629208
98809552 -0.0036612978425612087 0.0055228802726967376
98839314 -0.003562276522420654 0.00555535863167552
98869076 -0.003545131487586865 0.005579017871523979
98898838 -0.0040928676394894475 0.005537426468246287
98928600 -0.0034939214539303834 0.00561483337678728
98958362 -0.004125897943114803 0.005565673699274366
98988124 -0.0035775388250183617 0.005651813994585507
99017886 -0.0035431995209083958 0.0056772330765528685
99047648 -0.0035925618542014194 0.005680100563170349
99077410 -0.0035661209455233826 0.0057009763092672324
99107172 -0.003583655945860213 0.005712983867961708
99136934 -0.0035679168525285724 0.005726892134437306
99166696 -0.0036672463350321946 0.005742798442189151
99196458 -0.0036270641214489314 0.005721714145310909
99226220 -0.0036335446840182937 0.00569690664031126
99255982 -0.0036978881868375466 0.005668405107288667
99285744 -0.0036631412637985966 0.0056493607870859745
99315506 -0.0037171569476186495 0.005624074019168143
99345268 -0.0037313616132718737 0.005591320179736975
99375030 -0.003688558516692048 0.0055773155700189975
99404792 -0.003589816297641033 0.005523058572723193
99434554 -0.003758996837765331 0.005529087229970664
99464316 -0.0036598523761840196 0.005546963367504017
99494078 -0.003638951099254239 0.005586753717943218
99523840 -0.0035164490736584084 0.005627621236930964
99553602 -0.0034360150313039973 0.005666595700813166
99583364 -0.003910781278462011 0.005638355481272595
99613126 -0.002696457101220493 0.0058005219958178885
99642888 -0.003211724385121937 0.005780590499483365
99672650 -0.003133618848227119 0.005802308782587997
99702412 -0.0035829073929166642 0.00579089615842954
99732174 -0.003018944859081475 0.005843055694178444
99761936 -0.002911773204211177 0.005838275797830956
99791698 -0.0031441058914903845 0.005798323913746678
99821460 -0.0031356163795289074 0.005780376116214425
99851222 -0.0032265859947427297 0.005747669705206422
99880984 -0.0037603590399516613 0.005654985882970035
99910746 -0.0032486217433020186 0.005695364352247148
99940508 -0.0038233506764557097 0.005610818492687461
99970270 -0.0033206325484387697 0.005638473842800517
100000032 -0.003362202981570693 0.005612362006362644
100029794 -0.0033451100594180934 0.005610474799726614
100059556 -0.003327703810823568 0.005614551086043625
100089318 -0.003312398629840801 0.0056224367075208
100119080 -0.0032982462740486222 0.005614567611286218
100148842 -0.0032884471018049264 0.005620812449900357
100178604 -0.003271634465137178 0.005623279575627668
100208366 -0.003261550868594716 0.005628257172548262
100238128 -0.0032431372033842436 0.005628367889581883
100267890 -0.003227674266647004 0.005636676580139276
100297652 -0.0032221671182716856 0.005631280163768871
100327414 -0.003233483647559947 0.0056351622834279495
100357176 -0.0032329707049324986 0.005636825986090391
100386938 -0.0032396726765541745 0.005638444144725204
100416700 -0.0032385979626745657 0.00563566812142016
100446462 -0.003247128340163348 0.005640002041629239
100476224 -0.003247794428352367 0.005641176778607342
100505986 -0.0032516317117735204 0.0056341790735372245
100535748 -0.0032623936051111102 0.005648290094276107
100565510 -0.003279756269590478 0.005653827778278616
100595272 -0.0033272778799952204 0.0056973972197249525
100625034 -0.003375426007973546 0.00574553473394349
100654796 -0.0034110015097626846 0.005782982743284381
100684558 -0.003457415597106723 0.005820754151118858
100714320 -0.003503728435094965 0.005866923145753557
100744082 -0.003557306613636994 0.005909019114545001
100773844 -0.003614178218297109 0.0059526437639345845
100803606 -0.0036566156013852565 0.005995153765948675
100833368 -0.0037175357339055996 0.006038624601306406
100863130 -0.0036643892674676787 0.006021119837199242
100892892 -0.0036159077429865536 0.0060004596401885945
100922654 -0.0035683739813477527 0.005984954748135557
100952416 -0.003524831033397224 0.005952473431887772
100982178 -0.0034896998056446094 0.0059392463523908175
101011940 -0.003433626608461861 0.005915057929785738
101041702 -0.0033941256687441204 0.005898602856289712
101071464 -0.003352456177514682 0.005874948069412795
101101226 -0.0033053955949351784 0.005860459314712452
101130988 -0.0032959961445192527 0.0058401288407093025
101160750 -0.0033102652983237036 0.005833177023427163
101190512 -0.003320279474473009 0.0058266530116103865
101220274 -0.00332070877840522 0.005822608928750946
101250036 -0.0033288912121424864 0.005809516121199345
101279798 -0.0033418212951561313 0.005796429407111179
101309560 -0.0033441224544036234 0.005800520682965461
101339322 -0.0033549821043957263 0.005786540953930924
101369084 -0.0033645491596094373 0.0057793872521235854
101398846 -0.0033484271316565344 0.005790965195758573
101428608 -0.003290076535945829 0.0058341591969995055
101458370 -0.003221047181677024 0.005886649539069576
101488132 -0.003157084845084612 0.005930823383016764
101517894 -0.0030955631975971933 0.005980354552120377
101547656 -0.0030293410253426 0.006018604392175294
101577418 -0.002967031731989309 0.00607021445484751
101607180 -0.002894191196054305 0.006102120000000605
101636942 -0.0028229632207266426 0.00614549809348092
101666704 -0.0027486500954934405 0.006186317217985072
101696466 -0.002851626162419107 0.006147428933974699
101726228 -0.0029536400832748367 0.006107286311144576
101755990 -0.003058543398995799 0.006065998845397608
101785752 -0.0031527507172255465 0.006020860783697847
101815514 -0.00325043317732689 0.005967432515092167
101845276 -0.00334716973730201 0.005913318898844797
101875038 -0.0034369847730603203 0.0058530981586937805
101904800 -0.003535378108190254 0.005795170675774511
101934562 -0.0036180596808437185 0.005727743713342955
101964324 -0.0035869008732289124 0.005730044088552514
101994086 -0.0035109310792285128 0.005760229339460488
102023848 -0.0034215902480991315 0.005795167546737932
102053610 -0.003338906601760574 0.0058229893567808225
102083372 -0.003246087886702298 0.005856008248982607
102113134 -0.00316528303145767 0.00588783752662317
102142896 -0.0030748696495457835 0.005902470544355227
102172658 -0.002987688637871338 0.005926763887467951
102202420 -0.0029044634669041303 0.005932213355661281
102232182 -0.002871720249693288 0.0059655376012085716
102261944 -0.0029506683988614574 0.0060014767128795336
102291706 -0.003045849651597689 0.006036992113268984
102321468 -0.00313220901135377 0.006066707241864131
102351230 -0.003215149992643927 0.0061070929803276565
102380992 -0.0033187483108273784 0.006133689656003984
102410754 -0.0034145065670004512 0.006156188373381788
102440516 -0.0035133374754022654 0.006181923593705534
102470278 -0.0036188472093192986 0.006214866085321196
102500040 -0.003723107110697348 0.00623248059280355
102529802 -0.003676171258352582 0.006240605440054809
102559564 -0.003615220574197625 0.006239478840398722
102589326 -0.0035635057178305973 0.006260201680309789
102619088 -0.0035076130699811395 0.006267582170842572
102648850 -0.0037717586746194836 0.006286145425703483
102678612 -0.003410810864922556 0.006276523163226642
102708374 -0.003352614849694545 0.006286496571420109
102738136 -0.003300244522716222 0.006294684863811836
102767898 -0.003255008103045321 0.006296311406243531
102797660 -0.0032301892723829648 0.00628056732603729
102827422 -0.003222025355929578 0.006247055759942047
102857184 -0.003220586968946638 0.006213674818385889
102886946 -0.0032088165301158286 0.006178866637337799
102916708 -0.003210455990127346 0.006156455827736621
102946470 -0.0031989840807358414 0.00611961847548451
102976232 -0.0031931251507355137 0.00609434249839738
103005994 -0.0031849285671790607 0.006061199102033611
103035756 -0.003176783429983744 0.006031081241115541
103065518 -0.003179842224503789 0.006023471654929694
103095280 -0.0031835918193610976 0.00604317391025352
103125042 -0.0031821575732058002 0.006067963774285488
103154804 -0.0031895355170926663 0.006072425933979743
103184566 -0.003191365226448383 0.006123351254949647
103214328 -0.0031842809608521134 0.006145513292794384
103244090 -0.0031909123937721245 0.006159637377048769
103273852 -0.003198637140398583 0.006187196214708821
103303614 -0.0031939965284560135 0.006214724921038622
103333376 -0.0032027360701093075 0.006245861178574669
103363138 -0.0031142062254576595 0.006224784887611765
103392900 -0.003038630238303947 0.006211479684710421
103422662 -0.0029511505395410373 0.006200753271850151
103452424 -0.002874003625247986 0.0061826358096891704
103482186 -0.0027914683119075723 0.006164393574205364
103511948 -0.002720305588175971 0.006145677420377317
103541710 -0.0031626594676098492 0.00617644171947987
103571472 -0.0025628767857577635 0.006108453561425455
103601234 -0.002491618692883097 0.006081610159170651
103630996 -0.0025038661363364595 0.006076981947543182
103660758 -0.0025460324766429436 0.0060710058586767686
103690520 -0.002596243785900423 0.006063192890212476
103720282 -0.00264602321138268 0.006069640690175187
103750044 -0.002980185271762638 0.006097003466175182
103779806 -0.002744550695265465 0.006063195238111838
103809568 -0.002791523769705907 0.0060472660663813856
103839330 -0.002837331570238235 0.006042949028768532
103869092 -0.002900355822144992 0.006035879699974451
103898854 -0.003222785005167776 0.006062212189859947
103928616 -0.002975470044411906 0.006061530420172638
103958378 -0.0030137325466001053 0.006084596282608212
103988140 -0.003061092261688018 0.006108773781600325
104017902 -0.003091404603048755 0.0061341234980284536
104047664 -0.0031373059798993097 0.006162851434664753
104077426 -0.003180673755082599 0.006191411884502164
104107188 -0.0032194478717920308 0.00620922296388856
104136950 -0.0032584257742645506 0.006233794896667259
104166712 -0.0033035914405675215 0.0062544757578573175
104196474 -0.003290737309731516 0.0063005354056617675
104226236 -0.0032808190168880477 0.006340046076242522
104255998 -0.0032633053474614565 0.006382093322690102
104285760 -0.003250149194299713 0.006419419282284612
104315522 -0.0032337367411552744 0.006462965683517202
104345284 -0.003213598496767569 0.00650728496978967
104375046 -0.0035215687390426336 0.006563006597062542
104404808 -0.0031872420514401038 0.006586749608092642
104434570 -0.0031760855443752683 0.006632069818164031
104464332 -0.0031694599740567666 0.006606148688966051
104494094 -0.003170540959203018 0.006544463181219294
104523856 -0.0031676982759010616 0.0064960526572616795
104553618 -0.0031616591132787386 0.006436600520496157
104583380 -0.0031663405183855113 0.006380816757160292
104613142 -0.003160708174320584 0.00632446635108229
104642904 -0.003161548997787417 0.006272136965778264
104672666 -0.0031577429931596702 0.006213376312088438
104702428 -0.003518893426708723 0.0061786733194916
104732190 -0.003141541093286257 0.00614552336089895
104761952 -0.0031202979263127086 0.006217826956446408
104791714 -0.0031022688047975928 0.006280562871654851
104821476 -0.003080650182814551 0.006355400296733454
104851238 -0.0030521675777581306 0.006414838562452779
104881000 -0.0030255072012383556 0.006490366120157306
104910762 -0.0029959179794515354 0.006559002635810495
104940524 -0.0029646028959571784 0.006628373792261656
104970286 -0.0029345985846010894 0.006695900530199099
105000048 -0.002899979367507011 0.006772087024149962
