# HZ S RI R 50
90000000 0.0006093277658575373 0.004431033879986761
90029762 0.0006570530299690932 0.004442844762042705
90059524 0.0004690973733192291 0.004442306932358485
90089286 0.0006128427756788106 0.004457530760316781
90119048 0.0004694921861548913 0.004460121505584742
90148810 0.0006036605761701706 0.0044751396894462045
90178572 0.0006102456191620498 0.004477870774010572
90208334 0.0006536006777780189 0.004488975210430844
90238096 0.00046801755079131034 0.004481136560328974
90267858 0.0006085112256456368 0.0044939068147993215
90297620 0.0006238258623999529 0.004452133238277798
90327382 0.0006927714748421674 0.004394429934004566
90357144 0.0006750531921624451 0.004326460445877618
90386906 0.0007435398581909895 0.0042591400336696415
90416668 0.0005947738037659927 0.0041915617065306585
90446430 0.0007442849617142598 0.004135585045738624
90476192 0.0008137568349756637 0.004071327723003221
90505954 0.0008332962260839194 0.004007650751272579
90535716 0.0008157220138600047 0.00394339487421837
90565478 0.000881921543248682 0.003895204473317367
90595240 0.0008869326974146649 0.0038664146116896563
90625002 0.000930688483430643 0.0038405615171960257
90654764 0.0010169107321958708 0.0038123873959024428
90684526 0.0010558633106363203 0.0037825024064118674
90714288 0.0010618137130749433 0.003753923367323272
90744050 0.0011070634887420082 0.0037196557993256
90773812 0.0011899339709808706 0.0036747159680115345
90803574 0.001195050784444678 0.003643533575811298
90833336 0.0012788797657785477 0.003606379049446905
90863098 0.0012987477103970644 0.003542324721610467
90892860 0.0012805984527136985 0.0034814246791393523
90922622 0.0013400496889408517 0.003418602096715052
90952384 0.001358066798490505 0.003356378478942036
90982146 0.0013452906797656906 0.0033006933104305705
91011908 0.001389298580666894 0.0032341911867587534
91041670 0.0013800157963956806 0.0031735695926978415
91071432 0.0014025473571063576 0.003106409052567442
91101194 0.001321638931361139 0.0030534148157477597
91130956 0.0014516565600257406 0.003004548995181556
91160718 0.0014216784281573009 0.0029818379711808824
91190480 0.0014256654134624284 0.002954923659004232
91220242 0.001333539486816666 0.0029354035191243195
91250004 0.0014196455488833509 0.002908813365408467
91279766 0.0013403824720398928 0.002878714503996423
91309528 0.0014452987131487094 0.002837403116203399
91339290 0.0014212984385195808 0.002807611975528726
91369052 0.001442577754858133 0.002762665057846335
91398814 0.0013332090353924523 0.002728657424854121
91428576 0.0014193300510707645 0.0026423431363724946
91458338 0.0014342963019327725 0.00256324812290885
91488100 0.0014158540064582244 0.002491579218022262
91517862 0.0014028816966699155 0.0024164441297147266
91547624 0.0014150232164058948 0.002337531819746673
91577386 0.001424623715201261 0.0022596296562863434
91607148 0.001391634704816679 0.002186080685762705
91636910 0.0013798051954424806 0.00210854743123643
91666672 0.0013891015403753614 0.002018044080703549
91696434 0.0013940198717273752 0.0019338536959164188
91726196 0.0014461896133813436 0.001831965932720151
91755958 0.0014461991147926736 0.0017487730472738607
91785720 0.0014393513472194775 0.0016548874633211376
91815482 0.0014558738649821331 0.0015512088520336067
91845244 0.001463619458783702 0.0014451887056895845
91875006 0.0014366816913501668 0.0013515828113707952
91904768 0.0014018191831685596 0.0012625989534554808
91934530 0.0014148499663950416 0.0011466870594037488
91964292 0.001392789101229972 0.001057286422756083
91994054 0.0013634848586679133 0.0009777964440521264
92023816 0.0012958347830382875 0.0009033906717132214
92053578 0.0012767241049217028 0.0008118024494814458
92083340 0.0012252012750408937 0.0007265628841577401
92113102 0.0011902044933705446 0.0006347654402064155
92142864 0.0011314200674183443 0.0005556360135719358
92172626 0.001082198221832126 0.00046972829897279285
92202388 0.0010104585848876532 0.00037467155790807887
92232150 0.0009574858597594696 0.0002972805376559078
92261912 0.0008729770178316121 0.00019953465905343977
92291674 0.0007854604112590237 0.0001319020890267383
92321436 0.0006926940973518231 3.3860767636799786e-05
92351198 0.0006060231324451111 -4.846858307362231e-05
92380960 0.0005125527183060532 -0.0001300388880482765
92410722 0.00041108044986469045 -0.0002031313906589936
92440484 0.00029826437296818755 -0.0002658547788820236
92470246 0.00021446466551006704 -0.00034714261969909314
92500008 0.00012308187476666978 -0.00042903213520526927
92529770 2.2686231976008467e-05 -0.0004909715512392524
92559532 -7.433817313365297e-05 -0.0005565213258830444
92589294 -0.00018720422912773735 -0.000637554072877396
92619056 -0.0003040566227355746 -0.0006870924519034961
92648818 -0.0004139385899685126 -0.0007426331712734522
92678580 -0.0005200260411776988 -0.0008316068250164598
92708342 -0.0006523906178163788 -0.0008633858314806038
92738104 -0.0007832131384002642 -0.0009106731725216318
92767866 -0.0009089354648801842 -0.0009927849139461174
92797628 -0.0010499699871662214 -0.000987087123462459
92827390 -0.0011707620127334051 -0.0010581536970537457
92857152 -0.0013042714069924797 -0.001090317374161347
92886914 -0.0014157935509484805 -0.0012077507804769886
92916676 -0.0016365256138117183 -0.0011001805305570884
92946438 -0.0017591927453602936 -0.0011404652231995919
92976200 -0.0019056781146998946 -0.001145119514911262
93005962 -0.0020520897525716777 -0.0012658305117259998
93035724 -0.0022276986695937266 -0.0011406734668548465
93065486 -0.002349662168514756 -0.0012408778492108829
93095248 -0.002526588058248744 -0.0010141834485099773
93125010 -0.002681067855540084 -0.0009893684555049478
93154772 -0.0028187011304389915 -0.0009083507172655932
93184534 -0.0029712671125124877 -0.000992947017908721
93214296 -0.0030947947404082786 -0.0007817478853851188
93244058 -0.0032473203700446015 -0.0008297434187959959
93273820 -0.0033723079169035485 -0.0005723682572027404
93303582 -0.0034886513125303503 -0.00045542566083248934
93333344 -0.0035990581887314988 -0.00031407134889478684
93363106 -0.0037048347465701717 -0.00028080863215358
93392868 -0.00382986175179456 -0.00028069334545323415
93422630 -0.00394155594172105 -0.00025224933637889226
93452392 -0.004025298555519516 -0.0001652661566280264
93482154 -0.004135816574504537 -0.00017990580904900241
93511916 -0.004211850690029117 -7.254644967874206e-05
93541678 -0.004295984666720965 -5.789102522266311e-05
93571440 -0.0043960364307467055 -7.29814215350736e-05
93601202 -0.004472127660947662 -1.6923275359593814e-06
93630964 -0.004535064541970601 0.0001232456758350971
93660726 -0.0046302049030658215 0.0001829161445010909
93690488 -0.004672809742173828 0.0003709812348718664
93720250 -0.00476037199696769 0.0004683047723612664
93750012 -0.004818785487073883 0.0005843970090562578
93779774 -0.004848523117780791 0.0007799604035865183
93809536 -0.004981071871112915 0.0007556611020066706
93839298 -0.004946137500508902 0.0010180571975317815
93869060 -0.004963633673563036 0.0011768699718895648
93898822 -0.004970792683141778 0.0013294574452823857
93928584 -0.00502475898208231 0.001368459276766794
93958346 -0.005024662182154355 0.0014819307843020727
93988108 -0.005162281633561905 0.0014509237813935213
94017870 -0.005087025477245681 0.0016341551700945122
94047632 -0.005191970187373987 0.001616833872025383
94077394 -0.0050909307193484354 0.0018382819222264707
94107156 -0.005135045236896902 0.0018756254481956374
94136918 -0.00510851425154853 0.001991011616486222
94166680 -0.005149811774169934 0.0020452884947116147
94196442 -0.005441096429708505 0.002184939479605595
94226204 -0.005871486138410103 0.0022540287151736173
94255966 -0.006104919068437769 0.002494784624904678
94285728 -0.0065684810835149 0.002586206934401646
94315490 -0.007018122929780576 0.0027428777243990936
94345252 -0.007544345694065055 0.002912988081414109
94375014 -0.008195656742169965 0.003032326890501988
94404776 -0.008890729386243452 0.0031936724570489194
94434538 -0.009737228850315012 0.0032795146209071706
94464300 -0.009540471470190331 0.0033024104993210307
94494062 -0.00873864138375561 0.003347527081586307
94523824 -0.008096154959955722 0.003326472348092578
94553586 -0.0075336133440059945 0.0032783645508868095
94583348 -0.007002519520738049 0.003294156864547812
94613110 -0.0065842860678442345 0.00323633195657859
94642872 -0.006201416360604928 0.0031825746182682167
94672634 -0.005813602163189547 0.003146894756329209
94702396 -0.005487699861514412 0.003106192100319205
94732158 -0.005298026473472941 0.0030576958767119583
94761920 -0.005230315479272206 0.0031110942762702983
94791682 -0.005251567330346778 0.0031055042259572393
94821444 -0.0051107132280442035 0.003196032122171128
94851206 -0.00511038279504899 0.003204327424395033
94880968 -0.004980520070680592 0.0032698992076992473
94910730 -0.0049512152790292885 0.0032981053623500206
94940492 -0.004880395380599496 0.003336818966825742
94970254 -0.004878373257671275 0.003327983882940931
95000016 -0.004782800338419699 0.0033859953206314066
95029778 -0.004842250734522988 0.003411890311092533
95059540 -0.004826404104071642 0.003471972030493709
95089302 -0.004863886240296137 0.0035186084121122323
95119064 -0.004876269607458574 0.003554390363413851
95148826 -0.0049463352911987574 0.0035696591847243385
95178588 -0.0049410518635514995 0.003621969164896756
95208350 -0.0049796739681578816 0.0036658316481143764
95238112 -0.004988265299326054 0.0037159218775187223
95267874 -0.005029733617389151 0.003737213762036348
95297636 -0.0050257391016366015 0.00377516803786196
95327398 -0.005021481138560189 0.003827729011947389
95357160 -0.005021459544711296 0.003854745646946229
95386922 -0.005014679253361787 0.0038940411997391206
95416684 -0.005004307032890768 0.003924816194595688
95446446 -0.005008295371554859 0.003962602405282109
95476208 -0.004995164272990304 0.003997731991434297
95505970 -0.005002522706484214 0.004031550396695221
95535732 -0.0049927310552535555 0.004069167425080505
95565494 -0.0049669204650046525 0.004120358209745618
95595256 -0.004942341191785409 0.004171405418713265
95625018 -0.004918087291229799 0.004217645112469174
95654780 -0.004899640052195147 0.004273762045421048
95684542 -0.0048527233020713165 0.0043421506638785514
95714304 -0.004838954038012075 0.0043834180272497
95744066 -0.004791417526184644 0.004447767386152098
95773828 -0.004790427135065508 0.0044939629881915215
95803590 -0.00474351677009906 0.004543642667729753
95833352 -0.004712782333447406 0.004590140513757734
95863114 -0.004654170480444484 0.004591804051158673
95892876 -0.004601099071853542 0.00459427168977243
95922638 -0.004547786936149733 0.004590128062381605
95952400 -0.004494217214905676 0.004589492878171352
95982162 -0.004440653264063588 0.00459062918581823
96011924 -0.005241356272920962 0.004352897315598621
96041686 -0.004328277397254223 0.004579803819623289
96071448 -0.004293895859861689 0.004571727368990487
96101210 -0.004235067465003374 0.004572272693124753
96130972 -0.005055862067474601 0.0043828965929464695
96160734 -0.0042223694736344235 0.0046225948756386465
96190496 -0.0042330841927578486 0.004648841565149384
96220258 -0.0042312609703529895 0.004679293838782347
96250020 -0.004083549251309243 0.004710672118858474
96279782 -0.004425324806250333 0.004753283665048058
96309544 -0.004070098552145036 0.004748490376982933
96339306 -0.004252805148152879 0.004788736830227535
96369068 -0.0041729055771645126 0.004826257207108205
96398830 -0.004254968350303477 0.004853889707783559
96428592 -0.004418778477948789 0.004920141969034371
96458354 -0.004241978732080434 0.00494046466638707
96488116 -0.00348386645060861 0.005126195469372432
96517878 -0.004205002243393887 0.00504066849509295
96547640 -0.004189668900905334 0.0050960178851137735
96577402 -0.004188358381544424 0.005140830314754609
96607164 -0.004254617135599171 0.005192868722783424
96636926 -0.0034071705715493484 0.005352781105763402
96666688 -0.004142457935535449 0.005277797679204578
96696450 -0.004111089672396915 0.005251715472251118
96726212 -0.004091201684145615 0.005203278907679387
96755974 -0.004855744845102299 0.005019603502102177
96785736 -0.004023489971775901 0.0051294406985364135
96815498 -0.00477813783183365 0.004949122417279238
96845260 -0.00398031980373482 0.005049503502835125
96875022 -0.003951200634145787 0.0050084394483192775
96904784 -0.0039383902172556145 0.004978777252428948
96934546 -0.0038569583259614832 0.0049441264740264475
96964308 -0.0039079698461208425 0.00492078674395935
96994070 -0.0039334628465326725 0.00490309000903809
97023832 -0.0032880345819546824 0.0050158273871900695
97053594 -0.003985046692935415 0.004881251826159737
97083356 -0.004027340761506464 0.004869783958172486
97113118 -0.004753846563275321 0.004693534251344227
97142880 -0.004059626921507731 0.004825435245265017
97172642 -0.003426577189810847 0.004943042730704085
97202404 -0.004118266491955695 0.004788957282602316
97232166 -0.00412366040672495 0.004784373869244661
97261928 -0.004119092125358848 0.004814706457296239
97291690 -0.004086184452753824 0.004838466172051019
97321452 -0.0040599388776985145 0.004863077884222491
97351214 -0.00406278263698879 0.004895758084343709
97380976 -0.004041626830852961 0.004927972960721945
97410738 -0.004008818366464261 0.004959771719198767
97440500 -0.003988267963425139 0.004984956765230537
97470262 -0.0033121914011141956 0.00512963935282986
97500024 -0.003945186409015627 0.005042302547836634
97529786 -0.0039630623903511505 0.005067967984308158
97559548 -0.003283518341411282 0.005218775641436925
97589310 -0.003930503171528635 0.005141101830765583
97619072 -0.0038527347370309172 0.005183061009757844
97648834 -0.003952019151535166 0.005191499875187867
97678596 -0.003910891917244692 0.005235969693787201
97708358 -0.003244021994967534 0.0053659747012203465
97738120 -0.0039025640554130603 0.0053073681299524965
97767882 -0.003898273362006619 0.005332609043504002
97797644 -0.004555267402438712 0.005239782652924259
97827406 -0.0038158159179613087 0.005354202915434388
97857168 -0.003733019948039214 0.005362342916589838
97886930 -0.0036721904376617594 0.005367013076731735
97916692 -0.004260649709211375 0.00527662593319498
97946454 -0.0035519603035332687 0.005387606057039244
97976216 -0.004124037846179952 0.005284979988347176
98005978 -0.0028352293866514486 0.00547733482284128
98035740 -0.0033809586792265083 0.0053898794809373535
98065502 -0.003386858868896882 0.005394877734179902
98095264 -0.0034463282366731735 0.005424994731075353
98125026 -0.0034838419452987326 0.005453459469021237
98154788 -0.0029295773757674116 0.005560898784427756
98184550 -0.0036057807405400085 0.005495169080420804
98214312 -0.0036714916056022656 0.005516665051411266
98244074 -0.0030941320935409427 0.005626008367256068
98273836 -0.003834152854660694 0.005542212367288752
98303598 -0.0038755567988748257 0.0055778343115423755
98333360 -0.003938440359486852 0.005594346964325647
98363122 -0.003966766978500197 0.0055555282633242544
98392884 -0.003929015881993345 0.005537107684168146
98422646 -0.0039519523189149065 0.005504735034075699
98452408 -0.003952489174968618 0.005468239311384685
98482170 -0.003907262069852577 0.005451629633875307
98511932 -0.003938384388686193 0.005405629649432498
98541694 -0.003257041769554806 0.005493043827794053
98571456 -0.0038816385628509605 0.005358772054422722
98601218 -0.004507750745722702 0.005221724742153983
98630980 -0.003838483815666935 0.005338463492123126
98660742 -0.0037892592307625364 0.005373399673220763
98690504 -0.0031170316828532693 0.005492581930098288
98720266 -0.004315893780021668 0.005334982744443658
98750028 -0.003641151410887558 0.005448831834489058
98779790 -0.00359578765565378 0.0054840742769860324
98809552 -0.003582049637696458 0.00551394286122623
98839314 -0.003493271836736428 0.00554061859007281
98869076 -0.0034910686729629162 0.005558793415870452
98898838 -0.0040176983986226125 0.005516534617661253
98928600 -0.0034336489324365456 0.005596575704844246
98958362 -0.004053873023753017 0.005545702600013477
98988124 -0.0035034890160046597 0.005625217209077131
99017886 -0.003478221294003253 0.005648017529934899
99047648 -0.003540260229876694 0.005657414535095614
99077410 -0.0035062951292848927 0.0056800747827631904
99107172 -0.003530698048787797 0.0056888443425618315
99136934 -0.0035859053624165854 0.005699877023086628
99166696 -0.003608873939455844 0.005717904184821138
99196458 -0.0035625797063304414 0.005700449850839944
99226220 -0.0035733519716590733 0.005673998677728673
99255982 -0.0036343021856427497 0.005642942529802793
99285744 -0.0036051080033831 0.005625580348143206
99315506 -0.0036561573904783633 0.005597244533151132
99345268 -0.003663142731450872 0.005573861064914686
99375030 -0.0036258369239992806 0.005549319033956881
99404792 -0.003691830660276428 0.005521530745699157
99434554 -0.0036941817578115127 0.005494199333731421
99464316 -0.0036016612028639235 0.005521409457865845
99494078 -0.003577546434524743 0.005563518890405948
99523840 -0.0034579355691614507 0.005599850512070878
99553602 -0.003381574263065819 0.005639452136182255
99583364 -0.0038563790603384634 0.005617664289409703
99613126 -0.0026478459534761876 0.005772589420625362
99642888 -0.0031532939068039186 0.005755981998518315
99672650 -0.003075654047914262 0.005782983956233234
99702412 -0.003531211321389273 0.005761737384869957
99732174 -0.0029645926833540984 0.005821085453138682
99761936 -0.0028592572405916625 0.005808821574827421
99791698 -0.0031012971890417894 0.00576599465218957
99821460 -0.003085509377552044 0.005742278472572166
99851222 -0.003176684465159762 0.005713228910790147
99880984 -0.0036969965910872635 0.005635818951675077
99910746 -0.003200489866853245 0.0056725730838914626
99940508 -0.0037685034798660027 0.005576145298246448
99970270 -0.003277071695518673 0.0056043679688207995
100000032 -0.0033121297128929886 0.005584696919240555
100029794 -0.0032993611549317586 0.005577956434205084
100059556 -0.0032835377808357654 0.005582506918851152
100089318 -0.003274430074392197 0.005584131144512117
100119080 -0.0032578009306685075 0.0055782499812134494
100148842 -0.003238071880855643 0.005587912537714782
100178604 -0.003224343387985669 0.0055833866793284495
100208366 -0.0032158755387519506 0.0055923352073897125
100238128 -0.0031960424785301565 0.005601614360733565
100267890 -0.0031845607519975375 0.00560043299066877
100297652 -0.003183768573060091 0.005599565320259819
100327414 -0.00318859568658375 0.005588243847979757
100357176 -0.0032065698395637803 0.0055971093239095045
100386938 -0.003212344271396812 0.005595441576347446
100416700 -0.003203443323284411 0.0056000134817058775
100446462 -0.00320669933294467 0.005609724183596423
100476224 -0.0032082636276537565 0.005607098952654488
100505986 -0.0032248215318730795 0.005606640545038452
100535748 -0.003217953942922068 0.005611362690508419
100565510 -0.0032397725876525444 0.005623879280124372
100595272 -0.0032847454276163776 0.005661256001846778
100625034 -0.0033328167583794167 0.005706772088182545
100654796 -0.0033723439237116266 0.005741872493669045
100684558 -0.003427435927013815 0.00578367801339053
100714320 -0.0034671666351795763 0.005827361771819589
100744082 -0.003515282299001171 0.00587494549354094
100773844 -0.0035758070396097637 0.005917397157834954
100803606 -0.0036176429389228764 0.005964797837351805
100833368 -0.0036774152683122585 0.006002345488014258
100863130 -0.003628316558360542 0.005979593802764661
100892892 -0.003588240535842074 0.005965704571863483
100922654 -0.003527872271896704 0.005941501165656351
100952416 -0.0034864973176955178 0.005922212091991754
100982178 -0.003450339036578086 0.005904260764850991
101011940 -0.0034036161315907565 0.005879587901986745
101041702 -0.003358570779910428 0.005858523873659868
101071464 -0.0033168612265021408 0.005839921401398128
101101226 -0.0032755614010336626 0.005814405256979286
101130988 -0.0032746297159803716 0.005807593247550532
101160750 -0.0032761644586948527 0.0058003895451095525
101190512 -0.0032835448071571152 0.005789050963500297
101220274 -0.003289356865718708 0.005783668775971498
101250036 -0.0032999979548200427 0.005782969645641993
101279798 -0.0033030888194310764 0.005768666931789898
101309560 -0.003317127595759864 0.005766440650751712
101339322 -0.0032429290135149234 0.005750269004752401
101369084 -0.003407266878239698 0.005748031770734192
101398846 -0.003390491655995641 0.0057548733240444195
101428608 -0.003186412229502811 0.005795085272524606
101458370 -0.003122931520544932 0.005848555914451101
101488132 -0.0030554601883972664 0.005885538051775946
101517894 -0.0031419032332678713 0.005953469759586359
101547656 -0.0030839411862056826 0.005996541952134711
101577418 -0.0029390734915099893 0.006030326239024147
101607180 -0.0028779713207769974 0.00607203955810544
101636942 -0.002799387701390784 0.006115066715878413
101666704 -0.002731680284198354 0.006148858594556066
101696466 -0.0028347318925165655 0.006120919888168466
101726228 -0.0029350638919545848 0.006075877333083559
101755990 -0.003032046122115451 0.006028546909001788
101785752 -0.0031357426023183935 0.005982904175795571
101815514 -0.0032326403725316272 0.00593379051952842
101845276 -0.0033255096730583876 0.005883961618732082
101875038 -0.003412431250545286 0.005820780254731794
101904800 -0.0035037152320159127 0.005757748147617724
101934562 -0.0035970781891204503 0.005696630237837851
101964324 -0.0035668042709349774 0.005705769751003688
101994086 -0.0034821322392885557 0.005733474042792062
102023848 -0.0033911047936066347 0.0057678234841632365
102053610 -0.0033080460528863626 0.005800162370341466
102083372 -0.003213787467914237 0.005825492135559624
102113134 -0.0031337977854022777 0.005851424547056045
102142896 -0.003045697553397278 0.005876507920062121
102172658 -0.0029603546267425724 0.005892996034936921
102202420 -0.002881599911785179 0.005915481362525509
102232182 -0.0028523096492623586 0.005939284626201401
102261944 -0.0029307411940585663 0.0059758939368008065
102291706 -0.00302510999676376 0.006006100907005926
102321468 -0.0031103637158187147 0.006041264655932177
102351230 -0.0031979361325650186 0.006072115519873206
102380992 -0.0032914825062793757 0.006102071950345162
102410754 -0.003388027542659056 0.006133175531584407
102440516 -0.0034865983033082358 0.006155765758902207
102470278 -0.003590945001281769 0.006184282269185298
102500040 -0.0036958726894269914 0.006208055677838704
102529802 -0.0036348499107893427 0.006212936140556208
102559564 -0.0035907225549383663 0.006222295780853355
102589326 -0.0035312457870538185 0.006231132475825242
102619088 -0.0034853306076553774 0.006240677411013962
102648850 -0.0034322959143102323 0.006245538345590565
102678612 -0.003375525063749256 0.006256711573622131
102708374 -0.003330269127109413 0.00625848788119348
102738136 -0.0032762347386099916 0.0062644433102728575
102767898 -0.003226282472038304 0.006263667126978522
102797660 -0.00320737430588672 0.006253903635560344
102827422 -0.0031971843756309726 0.006215270296210254
102857184 -0.003193486023521979 0.006188972330718563
102886946 -0.003188081506352134 0.00615622838845982
102916708 -0.003180287469738813 0.006128457287893711
102946470 -0.0031740445782339846 0.006097246606270159
102976232 -0.003167577085617521 0.0060688236329112496
103005994 -0.0031617468131632806 0.006035039080577128
103035756 -0.003149988734065732 0.006016497447468779
103065518 -0.0031588872548864327 0.005996415298968284
103095280 -0.003153441085010146 0.006022679175482309
103125042 -0.003158557689526768 0.006045049318637294
103154804 -0.003159512240197792 0.006067285818796527
103184566 -0.0031585702866517903 0.006097071872561022
103214328 -0.0031642554340636157 0.006119430296012442
103244090 -0.0031747120985353926 0.006143798332521028
103273852 -0.0031685629149102797 0.0061716106039316435
103303614 -0.003171663518311602 0.006190678673738068
103333376 -0.003172699446621848 0.006215663619539251
103363138 -0.0030906802943179933 0.006208079759012105
103392900 -0.003007457161207183 0.006189977955795728
103422662 -0.002927419461297515 0.006183333366936631
103452424 -0.002844553382932034 0.006157862665040868
103482186 -0.002764975705251242 0.0061430927218819225
103511948 -0.0026920075125195643 0.006120486674843269
103541710 -0.002616138895481867 0.006097381262782496
103571472 -0.0025412651738187784 0.006086332880607521
103601234 -0.002466284240998038 0.006059632917640681
103630996 -0.0024731526955196143 0.006048581821956194
103660758 -0.0025234033249783632 0.006051541259247079
103690520 -0.0025768645409198 0.006045167847652096
103720282 -0.0026244277540951534 0.006046681316865929
103750044 -0.002749308378470251 0.0060498389606303375
103779806 -0.0027263094804136604 0.006036615027610098
103809568 -0.002769964289262447 0.00603030572241312
103839330 -0.002825786765814337 0.00602795264223686
103869092 -0.002865426891474294 0.006013351174042085
103898854 -0.002912664370339574 0.006016370576299711
103928616 -0.0029547832627566718 0.006045804235502382
103958378 -0.003000376922881065 0.006073015244072816
103988140 -0.0030379817657361727 0.00609168238145899
104017902 -0.0030719864125312176 0.006124159221027065
104047664 -0.0031066380963816766 0.006153667927025915
104077426 -0.003155755561742798 0.006173320999498728
104107188 -0.003202898677151416 0.0062020879212347415
104136950 -0.003244716745974613 0.00621873582393238
104166712 -0.0032887369455926554 0.006247219407062696
104196474 -0.0032754950772333584 0.006285955723141126
104226236 -0.0032533856670814536 0.0063271997256525055
104255998 -0.0032435729907658024 0.006363900551044283
104285760 -0.003228097940220211 0.006409094393867087
104315522 -0.003220041481330384 0.006451550138681675
104345284 -0.003200247533496434 0.00648586901837477
104375046 -0.0031840260879225997 0.00653835896404249
104404808 -0.0031660152632325697 0.006577022117835508
104434570 -0.0031562877118359992 0.00661654641165241
104464332 -0.003159477542320816 0.006590464073603876
104494094 -0.0031528462323533613 0.006533611618256494
104523856 -0.0031513268585271737 0.006480740295055913
104553618 -0.003147566526270497 0.006414740706291146
104583380 -0.0031448956373019473 0.00636501688774982
104613142 -0.0031486135225659248 0.006310367841492341
104642904 -0.0031459294906797694 0.006249656942569851
104672666 -0.0031401581603762766 0.006198860405557597
104702428 -0.003139005262717348 0.006141620660075
104732190 -0.0031261813490159117 0.006136177279888041
104761952 -0.0031067773172696687 0.006200881743218475
104791714 -0.003082328036085648 0.0062606152928872845
104821476 -0.0030578024304890234 0.006330325664393952
104851238 -0.0030312613608217062 0.006398918935761085
104881000 -0.003007246826602186 0.006472021646196469
104910762 -0.002981786152170051 0.006532806336391851
104940524 -0.0029476256806289956 0.0066141588718776284
104970286 -0.002921264900383222 0.0066776120837461804
105000048 -0.0028817694805923838 0.0067536300510927525
