# HZ S RI R 50
90000000 0.0006622392143925995 0.004404351577433406
90029762 0.0007117574203597496 0.00440799810944908
90059524 0.0005251648048483052 0.004408098547184782
90089286 0.0006685778139411539 0.00442224901550459
90119048 0.0005306921833558327 0.004421249890978538
90148810 0.0006681935491203492 0.004440968309010176
90178572 0.000674251998995723 0.00444217073810319
90208334 0.0007156502068043301 0.004447760430766842
90238096 0.0005302487664913829 0.004443107207515706
90267858 0.0006701578848550628 0.004453226840851776
90297620 0.0006844391726391938 0.004415006467814714
90327382 0.0007574637100483695 0.00434898191263912
90357144 0.0007327206845569828 0.004279182496164013
90386906 0.0008047036991916452 0.004220999569530368
90416668 0.0006545792662378084 0.00414489767867325
90446430 0.0008057181153986485 0.004085662201977335
90476192 0.0008679617869340744 0.004027536402831046
90505954 0.0008880822446420707 0.003962944477153205
90535716 0.0008737169816382357 0.0038934746476859713
90565478 0.0009371158561210086 0.0038471543908881445
90595240 0.0009434086120763553 0.0038162010800873534
90625002 0.000987711908819592 0.003791821951347481
90654764 0.0010734685596429563 0.00375385318162995
90684526 0.001110398931865913 0.003720126242935413
90714288 0.0011200529954433329 0.003692810886089476
90744050 0.0011666769682525883 0.0036590373789201166
90773812 0.001244407300446405 0.0036165632948378405
90803574 0.0012483786561306412 0.0035813864075354765
90833336 0.0013271793549343386 0.00354124362064602
90863098 0.0013485949719202746 0.003481957829192717
90892860 0.001335752532817344 0.0034187976148552226
90922622 0.0013873450647315232 0.003357831659616944
90952384 0.0014113476852293427 0.003282873871500517
90982146 0.0013931015648343927 0.00323428412599049
91011908 0.0014388201890172933 0.003161819327354335
91041670 0.001424562884274019 0.0030953998065715535
91071432 0.0014445354987467091 0.0030351483697482677
91101194 0.001365757006073998 0.002978712939250269
91130956 0.0014905043292349704 0.0029235247660810842
91160718 0.001465522538883364 0.002903072471805461
91190480 0.0014675513838540114 0.00287679593769705
91220242 0.001378512050684832 0.002859995210237308
91250004 0.0014602842790335361 0.002816357126510311
91279766 0.0013773629077783772 0.002803723340293212
91309528 0.0014908151773934484 0.0027384587639874983
91339290 0.0014580035777845002 0.0027150899514400465
91369052 0.0014809874991041766 0.002667337782008593
91398814 0.0013806502641880616 0.0026381790619798753
91428576 0.0014459635007158518 0.0025503031975500595
91458338 0.0014696220388324599 0.0024764267855615085
91488100 0.0014431550322964077 0.002399923390152203
91517862 0.0014430552870501627 0.0023130864045694853
91547624 0.0014560463625447897 0.002236737716863038
91577386 0.0014430131512279051 0.0021598398798059397
91607148 0.001419938924923953 0.0020712114499365896
91636910 0.0014052078119960948 0.00198962200455181
91666672 0.0014168677364501346 0.0019096718437427447
91696434 0.0014103134809690275 0.0018271474088413643
91726196 0.0014542730751234342 0.001724626688261944
91755958 0.0014604187377172553 0.0016189424202751458
91785720 0.0014507814616896595 0.0015322086485171182
91815482 0.0014541466233782957 0.0014264580028865604
91845244 0.0014543262110692488 0.0013253032554300475
91875006 0.0014295479426893242 0.0012281623278193718
91904768 0.001388780662018419 0.001133269050437349
91934530 0.0013904040573182548 0.0010322781607406614
91964292 0.0013564518079991765 0.0009343489871765356
91994054 0.001328055361530525 0.0008436424674125077
92023816 0.0012635222921400908 0.0007760905296110532
92053578 0.0012361545706376224 0.0006789757798462921
92083340 0.0011836238062881861 0.0005981273928901015
92113102 0.0011329461416704689 0.0005139107838309891
92142864 0.0010746198636598955 0.00042614238647448464
92172626 0.0010253483100415644 0.0003198968675670005
92202388 0.000956732954160452 0.00023740238855633373
92232150 0.0008771639270749763 0.0001641632547183652
92261912 0.0007911408915125608 6.425155847934268e-05
92291674 0.0006835557051486811 2.4426198872332042e-06
92321436 0.0006028650955402274 -9.131374026458583e-05
92351198 0.0005101732532618539 -0.00016209196851059077
92380960 0.0004157557716088785 -0.00024628687223562874
92410722 0.00030042403115365 -0.00031720909639490507
92440484 0.00019736036590451477 -0.0003904334232914807
92470246 8.625766240911328e-05 -0.0004604451729918025
92500008 7.755857084198594e-06 -0.0005330209926911475
92529770 -9.440525512609718e-05 -0.0006050286725126191
92559532 -0.00021525724442707494 -0.0006508038300689714
92589294 -0.0003312770734825917 -0.0007236605143593378
92619056 -0.0004446539536443898 -0.0007794203633819419
92648818 -0.0005834211590138386 -0.0008109184782252069
92678580 -0.000676219318858496 -0.0008911603350537513
92708342 -0.0008074128925540221 -0.000928127180638696
92738104 -0.0009444919635475077 -0.0009804202637796323
92767866 -0.0010777173087603005 -0.0010448809633756904
92797628 -0.0011992463419374412 -0.0010567870589091718
92827390 -0.0013392801037373028 -0.001120343289832367
92857152 -0.0014829753330135255 -0.0011099068711314347
92886914 -0.0016197182697232733 -0.0012254799234110156
92916676 -0.0018017103536125257 -0.001097143843058849
92946438 -0.0019370637475770054 -0.0011392277453480106
92976200 -0.0020681701459583824 -0.0011285050436630685
93005962 -0.0022276165028656614 -0.0012414613370655752
93035724 -0.002393647934742242 -0.0010855167342498622
93065486 -0.0025392244109770047 -0.0012098959844770787
93095248 -0.002686575248319001 -0.0009709468933739295
93125010 -0.0028546288280870066 -0.0009494234843932062
93154772 -0.002981832663546305 -0.0008289985007365623
93184534 -0.0031433826383596873 -0.0009105100185685992
93214296 -0.003260232252093761 -0.0006694482130861383
93244058 -0.0033990037547761824 -0.0007132632348225817
93273820 -0.003505040310711536 -0.00046814816733815206
93303582 -0.0036242457280953235 -0.00036573470450535986
93333344 -0.0037322310857440034 -0.00018041360896833486
93363106 -0.0038269489643390415 -0.0001441529494830291
93392868 -0.003958702452631699 -0.00016984658435904629
93422630 -0.004045713307735895 -0.00011517889830994196
93452392 -0.004111583870653468 -2.863681870308878e-05
93482154 -0.004225648089469198 -3.669809881692317e-05
93511916 -0.004298212308039489 3.450636841596676e-05
93541678 -0.004385255906533677 8.073112991954512e-05
93571440 -0.00447377302595915 6.513040080399144e-05
93601202 -0.004557635732445229 0.00014317684547942552
93630964 -0.004600448449991755 0.0002505254978021295
93660726 -0.004699768367349272 0.00034705187556628085
93690488 -0.004741335133046162 0.0005115364041880556
93720250 -0.004807709836969517 0.0006169479274283388
93750012 -0.004853067082861028 0.0007568830457397543
93779774 -0.004883788520875829 0.0009075066277117442
93809536 -0.005002810649120793 0.0009125811722882261
93839298 -0.004959411504137133 0.0011612082594940666
93869060 -0.0049768068864945786 0.0013148882340286137
93898822 -0.004978099064864003 0.0014608680054817719
93928584 -0.005030854331536636 0.001505151218438084
93958346 -0.005028646759299563 0.0016244681157272622
93988108 -0.005153055308682577 0.0015960736687683768
94017870 -0.005072484658600604 0.0017721324182412533
94047632 -0.0051783415619045614 0.0017760311154507303
94077394 -0.005080988243108173 0.001964956384498718
94107156 -0.005116524141736442 0.0020428583141515575
94136918 -0.005087241257963604 0.002126007280049345
94166680 -0.005111026051725872 0.0021879582757544824
94196442 -0.005403287987405204 0.0023165847377793532
94226204 -0.005816000315555865 0.002384096817903962
94255966 -0.0060567190478682635 0.002642361495124947
94285728 -0.006494163069411989 0.002756256265759315
94315490 -0.006967563312097919 0.0029107444798564534
94345252 -0.007484139161419224 0.0031067757087092484
94375014 -0.008136151681028625 0.003229328441238621
94404776 -0.008817668639453054 0.0033846849974024694
94434538 -0.009682380623458444 0.0035202271049475107
94464300 -0.009444047959622653 0.0034787833301394198
94494062 -0.008667729593342971 0.0035331007741156474
94523824 -0.008009706621343432 0.0034948570736571616
94553586 -0.007474141984808102 0.00343525267812272
94583348 -0.006932776765268195 0.003437486121707816
94613110 -0.006514250569693808 0.0033519873225051093
94642872 -0.006120696131666922 0.0032840877068798244
94672634 -0.005733222331910947 0.003262471114093681
94702396 -0.0054140198342251325 0.0031925754987845154
94732158 -0.005224093547464941 0.0031588443118649315
94761920 -0.005158188920161652 0.003200209684055152
94791682 -0.005169546733279053 0.003196430370505586
94821444 -0.005043581543781622 0.003272581870035244
94851206 -0.005047255853439188 0.0032743191255690998
94880968 -0.004903684158945907 0.0033455773657858397
94910730 -0.004872898144445971 0.003368161320082649
94940492 -0.0048028543184292505 0.003407015373553187
94970254 -0.00481124444953041 0.0033996382889162225
95000016 -0.004695154978201285 0.003461311509797915
95029778 -0.004776579552722148 0.0034784163894140494
95059540 -0.004755985885895422 0.0035341311144820495
95089302 -0.004776616423751886 0.003571339518015578
95119064 -0.004790978045036529 0.003622842070384239
95148826 -0.0048750167502590825 0.003630529700013445
95178588 -0.004860727755855643 0.0036903058115144716
95208350 -0.004897325555750924 0.00372209324614522
95238112 -0.00490646789679769 0.0037747292721431514
95267874 -0.004948708591679416 0.0037982981081990867
95297636 -0.004952359577496018 0.003843074933926858
95327398 -0.004942769520556642 0.00387727443355283
95357160 -0.0049429228786914995 0.003916362561240522
95386922 -0.00493170663252106 0.003952125002448816
95416684 -0.004917093012527431 0.003988421175336727
95446446 -0.004936539182387148 0.0040018655386706535
95476208 -0.004907351657236791 0.0040555830938203
95505970 -0.004914450110515887 0.004082206101322928
95535732 -0.004906221080743736 0.0041168955692523585
95565494 -0.004897707408577275 0.004164501891196055
95595256 -0.0048655350305834245 0.004211706277407857
95625018 -0.004835490451032208 0.0042672650572825235
95654780 -0.004807024612715187 0.004322439660886526
95684542 -0.00477538954470787 0.004384697084211985
95714304 -0.004750155929610386 0.004422720493676273
95744066 -0.004716223227827556 0.004478141404499934
95773828 -0.004702082236332955 0.004526361847205863
95803590 -0.004653835679370895 0.004580170038533528
95833352 -0.004630416201663603 0.0046318330712744075
95863114 -0.004562999644862033 0.004630185627422256
95892876 -0.004518584924803339 0.0046386399939934275
95922638 -0.004460772644349805 0.00462489134098093
95952400 -0.004411114360533041 0.00462880780762104
95982162 -0.00435569595025845 0.004624366867110566
96011924 -0.00516593503744902 0.004394700976363129
96041686 -0.00426298625808606 0.0046188607317413114
96071448 -0.004211041557774808 0.004614220542928577
96101210 -0.0041653182523876025 0.004607727477163359
96130972 -0.004969289899682441 0.004423814932394931
96160734 -0.004148027846598978 0.00465092234917339
96190496 -0.004153273291686404 0.00468543833770747
96220258 -0.004160993496629463 0.004706259956003363
96250020 -0.004160012177981824 0.0047411445934039025
96279782 -0.004180046751791416 0.004760204293855848
96309544 -0.004353878588094838 0.004812903022500863
96339306 -0.0041809246882735475 0.004823719005256311
96369068 -0.004194916245638719 0.004844756062210958
96398830 -0.004178202002014031 0.004880417130688888
96428592 -0.004167764810373065 0.00492541443456305
96458354 -0.004162636481192025 0.004973322086321702
96488116 -0.0034178901252006543 0.005151538825060167
96517878 -0.004123510249993603 0.005065479073631766
96547640 -0.004113288713613265 0.005119117785975849
96577402 -0.004107861534323551 0.005163266185637708
96607164 -0.004084853077711547 0.005218096652403855
96636926 -0.0033423483285832736 0.005367013121366792
96666688 -0.004065046415211612 0.0053036449854557445
96696450 -0.0040345733056599935 0.005261281728778514
96726212 -0.004017096309051892 0.005227394310111455
96755974 -0.0047726498052231186 0.005051858488810338
96785736 -0.003950417299033878 0.005150347348073889
96815498 -0.004706153640098404 0.004978130375108216
96845260 -0.0038972088964120332 0.005066450982437035
96875022 -0.003875284727421999 0.005027051932895479
96904784 -0.0038644518457128765 0.004992278795177717
96934546 -0.003791929015658511 0.0049639609331969875
96964308 -0.0038381726916579665 0.004934035219522221
96994070 -0.003862032231065766 0.004930865439700641
97023832 -0.0032292665003297665 0.0050191467094522395
97053594 -0.003909018914944862 0.004900449304591059
97083356 -0.003957492402577597 0.004869964943672858
97113118 -0.004672506639801729 0.004716390757847625
97142880 -0.003990651497828819 0.004847821276207803
97172642 -0.003365490044676878 0.004956003038508507
97202404 -0.0040557547049657194 0.004803430520611838
97232166 -0.004043411701985044 0.004794193597929966
97261928 -0.004049473857409853 0.004832385451951074
97291690 -0.004010108434879068 0.004862013133539995
97321452 -0.003999036953438068 0.004887690194821129
97351214 -0.004000732744081968 0.004912725152075985
97380976 -0.003979327747271771 0.004935644166461963
97410738 -0.0039331973466153625 0.004978094264780793
97440500 -0.0039122005764794365 0.005002777216393121
97470262 -0.003254094591932545 0.005133126240600722
97500024 -0.0038766091605560746 0.005050180746970758
97529786 -0.003898679624908171 0.00508037700490295
97559548 -0.0032201555616177134 0.005220664519053703
97589310 -0.0038609879061757713 0.005150869417654921
97619072 -0.003782864367416039 0.005193057433899744
97648834 -0.0038788661257819737 0.005209199155957675
97678596 -0.0038435870498164638 0.005243379220955964
97708358 -0.0031869044603326045 0.00537696124368217
97738120 -0.003842756980274761 0.005307369416188614
97767882 -0.003833009460161937 0.005342338862499296
97797644 -0.004468023765955845 0.005243401684072524
97827406 -0.0037489183929568268 0.005356418673087781
97857168 -0.003665671512067879 0.005371168160493309
97886930 -0.0036080572967734 0.005376798698769833
97916692 -0.0041838800507391 0.00528654136031145
97946454 -0.003485666383155951 0.005386540112961367
97976216 -0.004052201990909837 0.005298680908079761
98005978 -0.0027786702227879483 0.00548633530648387
98035740 -0.003320175518637272 0.0054028062936387735
98065502 -0.003332940151331151 0.005407011995878219
98095264 -0.003393254902104818 0.005422880761825229
98125026 -0.003417443035190276 0.005456376716014793
98154788 -0.0028751635956363398 0.005570702910035971
98184550 -0.003541484483699464 0.0055063590452468555
98214312 -0.0035980375334512963 0.005523238859710708
98244074 -0.003034843177055124 0.0056336336667039515
98273836 -0.0037665524889060227 0.005554958394414193
98303598 -0.0038005814533638204 0.005583934602696004
98333360 -0.003867258683540673 0.0055981760068582395
98363122 -0.003892641991615061 0.005569706829582201
98392884 -0.003855634163590863 0.005548404729408116
98422646 -0.0038859487443727954 0.005507367358137533
98452408 -0.003882933767157634 0.00547510133007751
98482170 -0.0038339789168549947 0.005458902676594461
98511932 -0.003864700648570294 0.005417678811707656
98541694 -0.0031887635378964507 0.005495566764240314
98571456 -0.003815955732920344 0.005367368382124129
98601218 -0.004428202928331969 0.0052292067980274125
98630980 -0.003766164575671503 0.0053493439546914235
98660742 -0.0037175568559609366 0.005380911355286113
98690504 -0.003059367638024286 0.005496610759033075
98720266 -0.004241718722032265 0.005346218014865236
98750028 -0.003573485076734835 0.005466451549838468
98779790 -0.0035262379325914344 0.005488394750023702
98809552 -0.0035151560128989234 0.005509234367392284
98839314 -0.0034271669597349987 0.005533764999877807
98869076 -0.003416521339680576 0.00555563986010745
98898838 -0.003949779180799354 0.0055156759398252864
98928600 -0.0033649335864017046 0.005598351563655172
98958362 -0.003974711421174525 0.005549035441494459
98988124 -0.00343052584197593 0.005625983977124647
99017886 -0.0034124110125134033 0.005644261055191209
99047648 -0.0034656515300848286 0.005662357568891804
99077410 -0.003943378728431715 0.0056776770180107265
99107172 -0.0034490903924958146 0.005693457114350047
99136934 -0.0035163893169607675 0.005701667752550205
99166696 -0.003533871576288568 0.005723967771763089
99196458 -0.003504000970110435 0.005693571671795295
99226220 -0.0035229517323620667 0.005657491972028965
99255982 -0.0035660943575675204 0.005645623803746737
99285744 -0.003530079406312581 0.005629900458113725
99315506 -0.003587047251452385 0.005594280195116143
99345268 -0.0036004819860303507 0.005571021465157133
99375030 -0.003567131051238609 0.00555123365890472
99404792 -0.003617671576408382 0.00552207000321418
99434554 -0.0036304538165399672 0.005494004909517828
99464316 -0.003537877014569606 0.005517099629104529
99494078 -0.003510009529385762 0.0055541563989061375
99523840 -0.003395121503787758 0.005599318578164596
99553602 -0.0033188352471097025 0.005632414679164435
99583364 -0.0037884860047367867 0.005614967777116038
99613126 -0.002592279622665564 0.005763585655791135
99642888 -0.0030911792530563566 0.005738709682500232
99672650 -0.003016649765622517 0.005775728407542581
99702412 -0.0034735364908303123 0.005735112010183362
99732174 -0.002901704224654954 0.005818429961182087
99761936 -0.0028012475074466916 0.005806980676327882
99791698 -0.0030309508177131404 0.005760228283455445
99821460 -0.0030213557205997638 0.005736396768278138
99851222 -0.003113541596630988 0.005708451200916803
99880984 -0.003624982206047585 0.005637495593708243
99910746 -0.003140161564393156 0.0056427743386185366
99940508 -0.003702757157601582 0.00557344712659182
99970270 -0.0032124347849429506 0.00559710382932028
100000032 -0.003255601520544974 0.005578192191262815
100029794 -0.003234374565874466 0.005570013369529806
100059556 -0.0032211982026268756 0.005575232587435379
100089318 -0.0032056486183214433 0.005571506825371965
100119080 -0.003193035392076087 0.005581893657852746
100148842 -0.00318594508595223 0.005575732097831816
100178604 -0.0031689737374968933 0.0055794254356599975
100208366 -0.0031555574993557115 0.0055841791477997844
100238128 -0.003142425043067318 0.005588871762729221
100267890 -0.0031257076476142115 0.00558767711384025
100297652 -0.0031208862230019388 0.005591957676037924
100327414 -0.003131604791389139 0.005589663624642699
100357176 -0.0031396145775313892 0.005591652141877146
100386938 -0.0031464945088991677 0.005596994629630603
100416700 -0.0031456552649081664 0.005591907029262469
100446462 -0.0031529350415515425 0.005591669833928711
100476224 -0.003160379999530702 0.005594808775604223
100505986 -0.00315838447001885 0.00560057841527537
100535748 -0.0031672640966462088 0.005598928563528428
100565510 -0.0031831195370710993 0.005609262582049738
100595272 -0.0032297222636832263 0.005653235250531427
100625034 -0.0032768237230473927 0.0056970550834579345
100654796 -0.003320496794262304 0.005737350179725468
100684558 -0.003363346326496204 0.005777157893018267
100714320 -0.003407963292872318 0.005819820052908871
100744082 -0.0034581370449020487 0.005868194574667781
100773844 -0.0035077555582201754 0.0059143998456702785
100803606 -0.0035628112346648595 0.005953641756084585
100833368 -0.003616906343295999 0.005998452015185489
100863130 -0.003569551378039196 0.005973886750773611
100892892 -0.003526802875063361 0.005955356368283841
100922654 -0.003480877248971696 0.005938210684444435
100952416 -0.003433281792944372 0.005909398523720927
100982178 -0.003400728593078668 0.005893041815717832
101011940 -0.0033529425517479314 0.005876317362265288
101041702 -0.00331159323185426 0.0058544615418419784
101071464 -0.003264150846319472 0.005835125040246814
101101226 -0.0032299430188370507 0.005809331917218637
101130988 -0.003208998586743746 0.0058029309532235855
101160750 -0.00321684127510204 0.0057905009030065424
101190512 -0.003231265772182216 0.005787329210578976
101220274 -0.0032439477718129296 0.005777487188962233
101250036 -0.003102236521986038 0.00576299832045957
101279798 -0.0033359650155157868 0.005771690167294307
101309560 -0.00334312820916923 0.005758302465432388
101339322 -0.0033460291035684 0.005754820973621905
101369084 -0.0032043306186295014 0.005727466032542564
101398846 -0.0031931669721061828 0.005743170068079023
101428608 -0.00328138687076936 0.00580361900418005
101458370 -0.0032201561282264013 0.005848787325391287
101488132 -0.0030805828331920493 0.005891876650865511
101517894 -0.003020569319142227 0.005928047156889311
101547656 -0.0029499045388919226 0.005975839068412122
101577418 -0.002886918967534808 0.006026496385330475
101607180 -0.0028207097940219257 0.006061158303071299
101636942 -0.0027528639752361717 0.006100088414813715
101666704 -0.0026805756502466835 0.006140504260241312
101696466 -0.002778978432987492 0.006106864690496493
101726228 -0.002882939104523933 0.006060809841750914
101755990 -0.002986840946128775 0.006025774425080903
101785752 -0.003081706246582868 0.005978122582056722
101815514 -0.003173139625645278 0.005927927710636144
101845276 -0.0032703676155298126 0.005880818116989124
101875038 -0.0033676280247787395 0.0058211829241526115
101904800 -0.0034581574499115398 0.0057561314381941965
101934562 -0.003537984643753275 0.005696475359279325
101964324 -0.003510248437114125 0.005705315254865237
101994086 -0.0034287568574839855 0.005736912928845963
102023848 -0.003349457034587033 0.005762777544473299
102053610 -0.0032536194238613285 0.005794110985937093
102083372 -0.0031743161864135495 0.00581950342001971
102113134 -0.003095691214880771 0.005848336154920736
102142896 -0.003002913687841442 0.005862052196732803
102172658 -0.002921297728622398 0.005890948007835652
102202420 -0.0028362994298818467 0.00590877106337431
102232182 -0.0028067294815896596 0.005932426172160152
102261944 -0.00288843682610625 0.005966270175546218
102291706 -0.0029694257056530255 0.006000482872161982
102321468 -0.0030560792963139293 0.006035151797161668
102351230 -0.0031479891205467717 0.006063043221689539
102380992 -0.0032388953669000957 0.006101035823722698
102410754 -0.003345653440291183 0.006124162895692258
102440516 -0.0034378128136272647 0.006156363349414698
102470278 -0.0035355385536635663 0.006183478546658306
102500040 -0.0036408573551364094 0.006203783927619076
102529802 -0.003583156982491691 0.006210762166993682
102559564 -0.0035351575859068557 0.006224425916059339
102589326 -0.003484505924555419 0.006225515251587833
102619088 -0.0034341336292546465 0.006238181167057967
102648850 -0.0033819658178706404 0.006245188284942029
102678612 -0.0033337083690476326 0.0062513837831902055
102708374 -0.0032758929496527586 0.006261497833108812
102738136 -0.003232637863191922 0.006260590571124227
102767898 -0.003181159248072992 0.006268502109791807
102797660 -0.0031576464336000635 0.006245539634300167
102827422 -0.003150014483768622 0.0062086629918103875
102857184 -0.003148056908573679 0.006187760298066292
102886946 -0.0031406448080622627 0.0061529943524955165
102916708 -0.0031309650873770373 0.006122736648195964
102946470 -0.0031275877795967437 0.006094461113622342
102976232 -0.0031219080055987104 0.0060639054281047605
103005994 -0.003120618407270204 0.006036812193991036
103035756 -0.003108840704310548 0.006000420133045007
103065518 -0.0031077441336076162 0.005996347640969328
103095280 -0.003111598564938142 0.006017190323309699
103125042 -0.003109023508860931 0.006035244226031293
103154804 -0.0031136347394358985 0.006067563332193618
103184566 -0.0031154326655608595 0.00609229516036112
103214328 -0.0031155227747207553 0.0061164762616057805
103244090 -0.003125534355044296 0.006147747361557407
103273852 -0.0031176091566757266 0.006168704635251889
103303614 -0.003126672710266917 0.006190046466396966
103333376 -0.0031188338334248683 0.006222147442570898
103363138 -0.0030438598760639643 0.006204943473620037
103392900 -0.0029598456556717842 0.006193591341445319
103422662 -0.0028837460141071035 0.006172400782845638
103452424 -0.0028048897235366855 0.006158003907854933
103482186 -0.0027234282492873208 0.0061398895043118604
103511948 -0.002659736672014954 0.006119999220520995
103541710 -0.00257612234130345 0.0060968084872924065
103571472 -0.002504920024318443 0.006074885555340957
103601234 -0.002420965802348133 0.00605631030148366
103630996 -0.0024338362345607237 0.006047636377549117
103660758 -0.002486214783312792 0.006045074899195827
103690520 -0.0025299112726995215 0.006045989703757726
103720282 -0.0025735000776403024 0.006047655782340155
103750044 -0.0026294498764697595 0.006042707675559325
103779806 -0.002680857109484401 0.006036916700787927
103809568 -0.002725140031106526 0.006030055185754522
103839330 -0.0027793781214471946 0.00602467599494674
103869092 -0.0028261122117931837 0.006014580542597275
103898854 -0.002871944187314494 0.006016662147170695
103928616 -0.0029112705584173745 0.0060476183895900254
103958378 -0.002950909149994844 0.006069469433015032
103988140 -0.0029791719465432106 0.006098496686637384
104017902 -0.0030256136745885156 0.006117145602205643
104047664 -0.003066590754745582 0.006144099092062734
104077426 -0.0031066521468539636 0.006170337088014335
104107188 -0.0031536256060817613 0.006190535733588042
104136950 -0.003191310670231462 0.006222297272592331
104166712 -0.003240304002060009 0.006238205647084028
104196474 -0.003221609760502124 0.006287323855267814
104226236 -0.0032091487820891194 0.006325441861618076
104255998 -0.00319806548006345 0.006365190097308917
104285760 -0.003184341681880264 0.006404557389829688
104315522 -0.003169303669234421 0.006446465651541906
104345284 -0.0031506417808037607 0.006487688025655234
104375046 -0.0031336063437181327 0.006527643831442076
104404808 -0.0031185341926224797 0.006569834042552745
104434570 -0.0031072488557304908 0.006614253301388188
104464332 -0.0030919077735520662 0.00658724517003599
104494094 -0.0030980262468134627 0.006529165564922159
104523856 -0.0031006606073452217 0.006477875424841085
104553618 -0.003093306728994178 0.006421262873153699
104583380 -0.003103756451559133 0.006367024236389339
104613142 -0.0030953434132199 0.00630972254566959
104642904 -0.0030908250488608695 0.006252185714439142
104672666 -0.003097024358264284 0.006198841681489812
104702428 -0.0030870202434044865 0.006144981594581065
104732190 -0.003081051353050375 0.006126764663490772
104761952 -0.003061215892070722 0.006194060960892555
104791714 -0.003043697608427249 0.006265642470186266
104821476 -0.003008153092680245 0.006328488398402399
104851238 -0.0029805279118791006 0.006395364600343914
104881000 -0.0029557962047321107 0.006465090237939591
104910762 -0.0029291435724359506 0.006538019246580222
104940524 -0.0029056263965395565 0.006614163681416994
104970286 -0.002869918613839242 0.006676559557546387
105000048 -0.0028487474019315427 0.0067565454233266395
