# HZ S RI R 50
90000000 0.0007054742752548018 0.004353880891407537
90029762 0.000751207351213993 0.0043599782505291465
90059524 0.000570119946056988 0.00435798265021196
90089286 0.000713059048918424 0.0043711167349156435
90119048 0.0005727428000605703 0.004364492112471416
90148810 0.0007066532942461277 0.004380188946803735
90178572 0.0007110628379781047 0.0043875146389888405
90208334 0.0007572223241566937 0.004396563156908172
90238096 0.0005743601202808473 0.004382054243896229
90267858 0.0007136210328024838 0.004396912896337444
90297620 0.0007381826968690678 0.004330681880103248
90327382 0.0007978844502506085 0.004288362032678633
90357144 0.0007759421115078279 0.00421560985038591
90386906 0.00084452705316149 0.00415357122656904
90416668 0.0006988477969562452 0.0040781490732290674
90446430 0.000845647759893305 0.004019818288157857
90476192 0.0009131058233599771 0.003944072017952156
90505954 0.0009269224638259062 0.0038938145599796458
90535716 0.0009082383457727737 0.0038263923094336866
90565478 0.0009752495146687833 0.003770521516920508
90595240 0.0009825580907173268 0.0037457844673397345
90625002 0.001024197913279575 0.0037138904925052875
90654764 0.0011063921497742287 0.003678084150890699
90684526 0.0011474617557483862 0.0036479640152211907
90714288 0.0011543830058225527 0.0036106617847649143
90744050 0.00119592210715093 0.0035688968772759014
90773812 0.001268729556525931 0.003531156895244039
90803574 0.001277851682005977 0.003491122937197929
90833336 0.0013593034802565785 0.003449277587608835
90863098 0.0013789501058944676 0.003376931588116208
90892860 0.0013607878867213116 0.0033223162850113393
90922622 0.001407904458530358 0.0032557685850450203
90952384 0.0012410778059480558 0.0032343088298379804
90982146 0.0014120320613354891 0.003127127497110373
91011908 0.0014606909347601076 0.0030578189577257077
91041670 0.00144333684676635 0.0029971818702536246
91071432 0.0014586256455074006 0.0029296927387094493
91101194 0.0013938308210621883 0.0028522835802835783
91130956 0.001500736800709795 0.0028147886412140345
91160718 0.0014658390543491491 0.0027866367397376387
91190480 0.0014765533216949634 0.0027648748492389674
91220242 0.0013880042400802137 0.00273751019440539
91250004 0.0013695029122294715 0.002718995463799644
91279766 0.0013886832871790812 0.0026674612417164094
91309528 0.0014906274438667483 0.0026202624990200756
91339290 0.0014566303582224857 0.0025773690534045633
91369052 0.0014778875698602256 0.0025347624297081812
91398814 0.0013787832346312137 0.002498377070501132
91428576 0.0014545828340713641 0.002395419791041008
91458338 0.0014599705368793375 0.0023295671143416675
91488100 0.0014325481028428133 0.002252031806318315
91517862 0.001424562152309372 0.002172105709943709
91547624 0.0014372055081760342 0.0020825956310731365
91577386 0.0014138932437087184 0.0020050686852523605
91607148 0.0014025906738816404 0.0019012890995171734
91636910 0.0013784857524808635 0.0018446040867980643
91666672 0.0013754263935319676 0.0017588670750603615
91696434 0.0013748913216323332 0.0016540743836399652
91726196 0.0013873135461796352 0.001564005464040684
91755958 0.0013836785709046668 0.0014660080483737607
91785720 0.0013581870426573135 0.0013778159078547342
91815482 0.0013757008945775096 0.001267443794324469
91845244 0.0013584605733576005 0.001178122364672545
91875006 0.0013353236157874922 0.0010670505920326284
91904768 0.001291385656085585 0.0009768175026170305
91934530 0.0012413957568494318 0.0008686439948192455
91964292 0.0012174918359301905 0.0007850400333598945
91994054 0.0011996827924701653 0.0006764036233158837
92023816 0.0011234187618720016 0.000617979396093028
92053578 0.0010671723308067595 0.0005450605931888917
92083340 0.0010333322261823232 0.0004435127577564758
92113102 0.0009936018319125514 0.0003138535371972804
92142864 0.0009014564601950572 0.00028690626578551216
92172626 0.0008291762571545312 0.00020892111779188336
92202388 0.0007691923325555739 0.00011608755656455455
92232150 0.0006666332768400732 5.085417875582394e-05
92261912 0.000581445218962769 -5.390527658238129e-05
92291674 0.0004733596575469993 -0.00012559771718412578
92321436 0.0003757377350998501 -0.0002049643371036816
92351198 0.000289151883050832 -0.0002533594971597978
92380960 0.00018901996335499605 -0.0003296155967777219
92410722 8.547057112789328e-05 -0.0004110974594339997
92440484 -2.2180451978022735e-05 -0.0004551323798714239
92470246 -0.00014759703114379782 -0.000499430517998502
92500008 -0.0002305609046507594 -0.0005912212810868684
92529770 -0.0003427476181697928 -0.0006576482141216053
92559532 -0.00045327340346777896 -0.0006935060017665101
92589294 -0.0005645633574983008 -0.0007566366445911147
92619056 -0.0006781616413747968 -0.0008483599387640351
92648818 -0.0008208576499843289 -0.0008357948869461414
92678580 -0.000904762066247598 -0.0009229824248104208
92708342 -0.0010847684924305426 -0.0009288246207299689
92738104 -0.0012093628096337546 -0.0009641453713639318
92767866 -0.0013154101149042547 -0.0010358928413420033
92797628 -0.0014906870482671243 -0.0010289649014325797
92827390 -0.001614915176680555 -0.0010603114875980704
92857152 -0.0017443255028578054 -0.0010783061772045223
92886914 -0.001886227262161318 -0.0012137119725171102
92916676 -0.002046859820254527 -0.0010289097967892185
92946438 -0.002189243443150226 -0.0010668686300029
92976200 -0.0023252224980241537 -0.0010574964448602563
93005962 -0.0024931762761657315 -0.0011797284205142746
93035724 -0.002662227872988244 -0.0010270533793500644
93065486 -0.002811657551824821 -0.0010908811119652857
93095248 -0.0029682287307388694 -0.0008391730317211294
93125010 -0.0031019138297747476 -0.0008069223743835968
93154772 -0.0032325055097049446 -0.0006886396236322654
93184534 -0.003391302692955465 -0.0007538393647325523
93214296 -0.0034884832097126987 -0.0005229743026482438
93244058 -0.003619182724696463 -0.0005264460886216269
93273820 -0.003725773195927996 -0.0002937532012464566
93303582 -0.003810031620120285 -0.00016877320967685045
93333344 -0.0039035201870830784 1.8095070429151665e-05
93363106 -0.0040078400777338475 5.0620835096515255e-05
93392868 -0.004119183719553472 4.9430829402055695e-05
93422630 -0.004202550451369433 9.379530948945223e-05
93452392 -0.004278099684330338 0.00017786441662615595
93482154 -0.004363343477784063 0.00017190092746776836
93511916 -0.004448660797804273 0.0002527433437562231
93541678 -0.004514763623181845 0.0002813595244086983
93571440 -0.0046106585924456595 0.0002695127336893664
93601202 -0.0046563146389510075 0.00036338943508439255
93630964 -0.00473564411500733 0.0004695311489095266
93660726 -0.0047939318102630515 0.0005537615057557659
93690488 -0.004827826227748984 0.000734449096093636
93720250 -0.004891149802879675 0.0008221606760345308
93750012 -0.004940200940541859 0.0009549386319261975
93779774 -0.0049392665266252914 0.0011416820828338196
93809536 -0.005073684634489149 0.0011354747494390302
93839298 -0.00501123228325079 0.0013667636999710891
93869060 -0.005005125825905686 0.001514380096784693
93898822 -0.0050123467066596206 0.0016673301688839481
93928584 -0.005046127759604628 0.0017101729917817997
93958346 -0.0050393590983893845 0.001836096312940194
93988108 -0.005172914142966252 0.0017946068620806573
94017870 -0.00507932360078078 0.0019677429215128137
94047632 -0.005186594719075702 0.0019748498531738544
94077394 -0.005077291343292865 0.0021584234118758746
94107156 -0.005097674735071027 0.0022051076934884372
94136918 -0.0050704750961570915 0.002306247077310864
94166680 -0.0051089716986837145 0.0023637932947218397
94196442 -0.005392837456216989 0.0024932295909608033
94226204 -0.00580548151970287 0.0025696114861172375
94255966 -0.0060319998519504925 0.0028351722730205284
94285728 -0.006485286635780318 0.0029752689253704752
94315490 -0.006949709402875376 0.0031321777614506763
94345252 -0.007460766564689215 0.0033167406549797175
94375014 -0.008096528115284562 0.003460452983689549
94404776 -0.008795164191125889 0.003620363446119166
94434538 -0.009647521931898306 0.00374785682981916
94464300 -0.00942637483645279 0.0037588785947069926
94494062 -0.008592561080912543 0.003789873238741172
94523824 -0.007954349169820785 0.0037229478905937987
94553586 -0.0074259242478982345 0.0036409155491501427
94583348 -0.006882559168692868 0.003610615663247563
94613110 -0.00646165629033027 0.0035149121378053507
94642872 -0.006057870265759081 0.003445190893765331
94672634 -0.005680783704939972 0.0034017162925436954
94702396 -0.005359912897384884 0.003330813621012864
94732158 -0.005152869757574574 0.003274688920802662
94761920 -0.005107688892564506 0.003325945186602855
94791682 -0.005102347411298981 0.0033193736396334964
94821444 -0.00498844370425281 0.0033757629853380378
94851206 -0.0049896693362005765 0.0033918636463429346
94880968 -0.004855103165263343 0.0034513298539154704
94910730 -0.004809844343049592 0.0034674415654104146
94940492 -0.004731078645470983 0.0035043355633013113
94970254 -0.004746757472383106 0.0034993637565889895
95000016 -0.004635871666016553 0.003546483837054324
95029778 -0.004716564831361033 0.0035683991777298403
95059540 -0.004687227606548997 0.00362743332162805
95089302 -0.00472092745871223 0.003655382793916892
95119064 -0.004734489013190102 0.003695761072409876
95148826 -0.004810269362093515 0.0037238394996017103
95178588 -0.004801420698255149 0.0037813200634345054
95208350 -0.004834904571517086 0.0038083487286399865
95238112 -0.004850073332726794 0.0038521007908782355
95267874 -0.004888641828097086 0.0038851724249616168
95297636 -0.004877735955700271 0.003917498555397937
95327398 -0.004883372846584395 0.003952414138694439
95357160 -0.004882796142675085 0.003992093147646682
95386922 -0.00487303120848646 0.00400944088616172
95416684 -0.004861825793696371 0.004055577703579625
95446446 -0.004866498974848818 0.004089554847145045
95476208 -0.004844314586124385 0.004122924445235807
95505970 -0.004856663752140761 0.004155007555298884
95535732 -0.004839720981855233 0.004176529388719834
95565494 -0.004820835895225793 0.004221550400136872
95595256 -0.0047902081379349705 0.004286637020296088
95625018 -0.00477102727538261 0.004326598757799323
95654780 -0.004743020048929203 0.004386440914089246
95684542 -0.004708146562690284 0.0044317614945328055
95714304 -0.004674622332620476 0.004475584488011472
95744066 -0.004553066908370343 0.004566235354031873
95773828 -0.004629360446864717 0.004576526405601315
95803590 -0.004586349893154761 0.004617152229615906
95833352 -0.004558468902950989 0.0046719528623826246
95863114 -0.004501487317169003 0.0046765558284672356
95892876 -0.0044497909911515865 0.004675830133535595
95922638 -0.004398482025518331 0.004671896605199233
95952400 -0.004352593609147233 0.004666572835086798
95982162 -0.004296775051850063 0.004664112980513193
96011924 -0.005093997106466975 0.004441159541036088
96041686 -0.00421226052999026 0.004659987501257707
96071448 -0.004152013997663455 0.004650927892947687
96101210 -0.0041092393375933385 0.004636118620395333
96130972 -0.004911606801066981 0.004463227473035009
96160734 -0.004092649357728342 0.004683557674186318
96190496 -0.004097103704774475 0.004714662857293634
96220258 -0.004106706850232444 0.004748337732683264
96250020 -0.00410244284081563 0.004762677641332431
96279782 -0.004119969256674313 0.004796686693083649
96309544 -0.0041268746253551505 0.004821691204657476
96339306 -0.004122603374602296 0.004850476134781986
96369068 -0.004136514339497036 0.0048801738320881725
96398830 -0.0041264503618738185 0.004906456688432201
96428592 -0.004116635779909387 0.004948474725640611
96458354 -0.004108980092442127 0.0050047242955930625
96488116 -0.003373686768664643 0.005170076371487175
96517878 -0.0040771800241869525 0.005099789482088481
96547640 -0.004062502153088471 0.005141373045029854
96577402 -0.004059680368140606 0.00518418876001131
96607164 -0.004032551889383624 0.005234798210555817
96636926 -0.003295533470508973 0.005388371498396143
96666688 -0.004015255254158312 0.005321614902329433
96696450 -0.003979110545392931 0.005295953101712019
96726212 -0.003967136003549221 0.005257228447654916
96755974 -0.004713460342248988 0.005076553935973602
96785736 -0.003910873151770666 0.00516886722701506
96815498 -0.0046541675019165065 0.0049952485285660155
96845260 -0.003853021546411867 0.005081786078757287
96875022 -0.0038299493276448596 0.005046486255907912
96904784 -0.0038225626648285757 0.005012552028961113
96934546 -0.003744731817768084 0.0049847873492566705
96964308 -0.0037929242333980527 0.004950720453468267
96994070 -0.0038153203131448287 0.004939886819392054
97023832 -0.003189811987089646 0.005038194091662139
97053594 -0.00387152472577623 0.004912188397019786
97083356 -0.00392263191608817 0.0048871929775755095
97113118 -0.004634678718394258 0.004730892292654671
97142880 -0.003947425053935532 0.004859298941731091
97172642 -0.0033264429833248254 0.004971929393367548
97202404 -0.0040150225357934045 0.004818726277578421
97232166 -0.004006428391481642 0.004819718112462879
97261928 -0.004008420006483942 0.004840752342124375
97291690 -0.003970755165829352 0.004873967449085176
97321452 -0.003958893184455613 0.004907595472117574
97351214 -0.00395673383702228 0.004923048872246952
97380976 -0.003938282760925681 0.004950568764705499
97410738 -0.0039016339047732657 0.004981770074014942
97440500 -0.003876580569355607 0.00501541995774763
97470262 -0.0032250978095802003 0.0051474966310189356
97500024 -0.0038464475738750883 0.005066201698583593
97529786 -0.003857291903000317 0.0050967183195361095
97559548 -0.0031887414388909905 0.005232593845302688
97589310 -0.003824095843194809 0.005158748749962031
97619072 -0.0037468524204234783 0.005203837504826457
97648834 -0.0038408935699399045 0.005216607077889071
97678596 -0.0038053891510393388 0.005262206167610338
97708358 -0.0031519368951211857 0.005385587282270688
97738120 -0.0038033294478660574 0.005321966764517228
97767882 -0.003794628049095752 0.005343165207906601
97797644 -0.004423064072087772 0.005263037639255673
97827406 -0.003712230800016112 0.00537413187534033
97857168 -0.0036299509499236582 0.005378981299847731
97886930 -0.0035679716246033747 0.005387279459098425
97916692 -0.0041455334394723 0.005293236087470671
97946454 -0.0034527445391597258 0.005399906586075418
97976216 -0.0040180680945536215 0.005309922096997521
98005978 -0.0027556860923328447 0.0054846939446883255
98035740 -0.0032904416830993 0.005408855025076852
98065502 -0.003290419778815185 0.005418149460222285
98095264 -0.0033545427068916605 0.005439651182546252
98125026 -0.0033856002165170884 0.0054621871174137
98154788 -0.002843849887910918 0.005571319400420842
98184550 -0.0035057405636586794 0.005507741117729454
98214312 -0.0035706079220163517 0.005531343012228778
98244074 -0.003008439698492723 0.005644435359034491
98273836 -0.0037357769260854966 0.0055740473906581
98303598 -0.0037689114192949796 0.0055917198808459806
98333360 -0.0038308801971893972 0.0056115497374231065
98363122 -0.0038631491435877816 0.0055712919134256154
98392884 -0.0038190321520446594 0.005549580057536843
98422646 -0.0038432539287667888 0.005515188156345054
98452408 -0.003843364828546864 0.005491206207625877
98482170 -0.0037980734093881027 0.005468947917709505
98511932 -0.0038341726430603388 0.005432886458404746
98541694 -0.003166285047164097 0.005501871961969867
98571456 -0.0037845571762279927 0.005370453066827376
98601218 -0.004397613866835968 0.0052391136088293724
98630980 -0.0037376994461144476 0.005357238951970202
98660742 -0.003695436663358437 0.005384062055419822
98690504 -0.0030248461217803626 0.005496315911243145
98720266 -0.004211076521652392 0.005358868587064691
98750028 -0.0035475673476801097 0.005462158931179113
98779790 -0.003496716775100943 0.005490843338918101
98809552 -0.0034848399804925496 0.005512713137921719
98839314 -0.003400201358524561 0.005534474715047971
98869076 -0.003385578433848455 0.00556220223002192
98898838 -0.003915487208422114 0.005520560768337784
98928600 -0.0033314943773986136 0.005599335100994294
98958362 -0.003943494505861882 0.005559611958310302
98988124 -0.0034075716592488446 0.00562522775735655
99017886 -0.0033780911888972955 0.005660153366839281
99047648 -0.003434591333141847 0.0056561560479324105
99077410 -0.003405797034908824 0.005681044054522631
99107172 -0.003425063541282196 0.005694208859675437
99136934 -0.0034893366096032754 0.005706539709966537
99166696 -0.0035002438975536092 0.005717172564200106
99196458 -0.0034696502852249295 0.005703975554064397
99226220 -0.003478858789988942 0.005682515020055096
99255982 -0.0035385069410671347 0.005646335077899085
99285744 -0.0034998152122617514 0.005626459111468492
99315506 -0.0035632693728175975 0.005601428552944088
99345268 -0.003568945893822944 0.005574030064423624
99375030 -0.0035365488462785516 0.0055551758136889165
99404792 -0.003594610811499302 0.005526603720775175
99434554 -0.0035992285900238517 0.005502428477201758
99464316 -0.003505987667224278 0.005529945797308317
99494078 -0.0034848744508397737 0.005563267119200696
99523840 -0.003360418989912402 0.00560149505443117
99553602 -0.0032907852201959735 0.005640696935613303
99583364 -0.0037588064439618794 0.00560851456115561
99613126 -0.0025648520144580657 0.005765577646633273
99642888 -0.0030687923398634797 0.005741666440462901
99672650 -0.0029926701287155883 0.005778340425139513
99702412 -0.003435954908467373 0.005758519785431468
99732174 -0.0028829481506728867 0.005817026309947314
99761936 -0.0027777956383087587 0.005801078730319811
99791698 -0.0030115854651625237 0.005759871153433752
99821460 -0.0030020532918771177 0.005742021974370937
99851222 -0.0030855145185494605 0.005708058053425178
99880984 -0.0036013921329740295 0.005627824411495821
99910746 -0.0031124385193011393 0.005652293493735884
99940508 -0.003679504201591254 0.005568976164716587
99970270 -0.003186173103708115 0.005600269985912159
100000032 -0.0032345390609316003 0.00557291046706321
100029794 -0.003210396406872058 0.0055660715320815235
100059556 -0.003197674183801745 0.00557105026858169
100089318 -0.003175844358093354 0.005574746413606336
100119080 -0.0031768214405119106 0.005576948313089043
100148842 -0.0031588139001354097 0.005576972200512078
100178604 -0.0031434913047719624 0.005573747069039699
100208366 -0.003131239559507066 0.0055861376888256134
100238128 -0.003112345447515642 0.005587442069709423
100267890 -0.0031051770307331094 0.005591305547318709
100297652 -0.0030996705172923094 0.005584047281813968
100327414 -0.0031072924140991727 0.005591978738881205
100357176 -0.0031124608440171397 0.005594231237857035
100386938 -0.003115664372600936 0.005592728756956073
100416700 -0.003122823234137199 0.005589956670823853
100446462 -0.003125049216212875 0.005595247237336419
100476224 -0.0031353321273058245 0.005597304575922891
100505986 -0.003138417465134497 0.005596028228658755
100535748 -0.0031434269033699318 0.005605191387807771
100565510 -0.003162059994251488 0.005612941699454386
100595272 -0.0032093755407923415 0.0056475647776005325
100625034 -0.0032478495743699905 0.0057010876510436076
100654796 -0.003298510736485856 0.005738750921467061
100684558 -0.0033402814561820024 0.005775479009194491
100714320 -0.003391468971462051 0.005824472116704544
100744082 -0.0034373723151514433 0.005868814696737169
100773844 -0.0034888906171667436 0.0059049139612735195
100803606 -0.0035370238438377664 0.005948383176223527
100833368 -0.003521687992710404 0.005986320462193594
100863130 -0.0035519268304414556 0.005973823111202811
100892892 -0.003505718409493552 0.005953610589992136
100922654 -0.003461787471176171 0.005936728587156759
100952416 -0.003410549616807051 0.005912152510582776
100982178 -0.003373708952401528 0.005887838233641408
101011940 -0.0033298366484724503 0.005869478942559051
101041702 -0.003284453073181453 0.005847849062734595
101071464 -0.0032387603384838154 0.0058320121641824985
101101226 -0.0031964496774452024 0.005807051738607399
101130988 -0.0031989425340610013 0.00579397483687106
101160750 -0.003200143389897558 0.0057865220591925125
101190512 -0.0032147341588469346 0.0057830224061246474
101220274 -0.003221588091807818 0.0057787200644953815
101250036 -0.0032240685437710088 0.005769671387296715
101279798 -0.0032346049356575864 0.0057636668831450326
101309560 -0.0032463351189526615 0.005755923515801521
101339322 -0.0032523944907428973 0.005746120026744871
101369084 -0.003260787103070564 0.005734775737134374
101398846 -0.0032471046755347707 0.005740333236475539
101428608 -0.0031846173489820918 0.005791901767591073
101458370 -0.003121575573292974 0.0058405621679110346
101488132 -0.0030631232904408906 0.005890926723174379
101517894 -0.0030005452965901074 0.005928505468421355
101547656 -0.002936455238891873 0.005975983506572257
101577418 -0.0028716340877490668 0.006021243335678843
101607180 -0.002801700600072426 0.006058072289620848
101636942 -0.002732323309503473 0.006103878500210458
101666704 -0.002662105680512556 0.006138778272910531
101696466 -0.002764334336590725 0.006101265748207311
101726228 -0.0028629680996793295 0.006063309081941252
101755990 -0.0029614684943396604 0.006024549356505275
101785752 -0.003064222001213852 0.005972793786006346
101815514 -0.0031657565222344155 0.005925175056013315
101845276 -0.003253345441958017 0.005879003183893626
101875038 -0.0033469227090768532 0.005816784003429253
101904800 -0.0034395407154481374 0.005759791028843162
101934562 -0.0035265514108309922 0.005702756399095285
101964324 -0.0035009135306671166 0.005705044618356812
101994086 -0.003424583638385204 0.005729896095030463
102023848 -0.0033248724789090704 0.00576329303108771
102053610 -0.003250525373220727 0.005796204513670691
102083372 -0.0031656587402078876 0.005826627220523795
102113134 -0.0030800795288703246 0.005850651999320628
102142896 -0.0029905339749011772 0.005867801177004163
102172658 -0.0029075650932833016 0.005894011438805801
102202420 -0.0028289734696100325 0.005908441107907049
102232182 -0.002882464611212385 0.005925079926468822
102261944 -0.002874763200113967 0.005968640426481219
102291706 -0.002960865746224829 0.006004565014779139
102321468 -0.0030507820823600217 0.006033507637375534
102351230 -0.003130475606288513 0.006066202891332395
102380992 -0.0032317888729278318 0.006095041679460812
102410754 -0.003326278720606053 0.006127779229692603
102440516 -0.0034216646672973862 0.006160783258003299
102470278 -0.0035282647007338712 0.006178439756022837
102500040 -0.0036334760301142185 0.006205614211027266
102529802 -0.0035785191928474546 0.006209992744009688
102559564 -0.003526825779540347 0.006219371759350928
102589326 -0.0034746448428792246 0.006233259906491933
102619088 -0.003422863898075148 0.006236779340213901
102648850 -0.0033706472248991245 0.0062437325435444075
102678612 -0.00331586084976921 0.006251394781209551
102708374 -0.003269384819446514 0.006253880013156326
102738136 -0.0032142092313966362 0.006258335707304094
102767898 -0.0031614337417648214 0.006261583455900628
102797660 -0.003144053762886268 0.006244349242643936
102827422 -0.003134911943604316 0.0062171320292796
102857184 -0.0031344077752017527 0.006181755083405044
102886946 -0.0031312710969397285 0.006155469145936763
102916708 -0.0031235475247168767 0.006120378718849308
102946470 -0.0031142474618445935 0.006089642978053191
102976232 -0.0031064148396783564 0.006066308758817166
103005994 -0.0031003887073471773 0.006037534598857208
103035756 -0.0030966965018862968 0.006005784668418335
103065518 -0.0030972187424921555 0.005995406872569692
103095280 -0.003101234887238768 0.006019249183615376
103125042 -0.0031002638672305628 0.006045385224891104
103154804 -0.003099503129735433 0.006066973444139518
103184566 -0.003111279054201192 0.006090697749791067
103214328 -0.0031131457499815646 0.006122245833095063
103244090 -0.0031148395910275475 0.006140260518532808
103273852 -0.0031185584531609016 0.006167482988365675
103303614 -0.0031131657472873845 0.00619564055900072
103333376 -0.0031161215793783694 0.006219274779653084
103363138 -0.0030343816333698705 0.006204550027669187
103392900 -0.00295071175958501 0.006185564362461353
103422662 -0.0028704050429340616 0.006176392730297396
103452424 -0.0027961152163499415 0.006159201066012565
103482186 -0.0027193117276440586 0.0061444697530086195
103511948 -0.002638774630272152 0.006120729666508162
103541710 -0.0025626367035666664 0.006101284106351529
103571472 -0.0024886896420057603 0.006077089073409555
103601234 -0.002419424009487587 0.006058366677857962
103630996 -0.0024266675709903054 0.006052244597918641
103660758 -0.0024755440570823277 0.006050180791753106
103690520 -0.002527754557712758 0.006047623966685937
103720282 -0.0025650194186563305 0.006044686306870126
103750044 -0.002620361886837071 0.006040323447550018
103779806 -0.002666014686463992 0.006039648407823302
103809568 -0.0027134810964512847 0.006033622319874365
103839330 -0.002763778420210506 0.006023454973128413
103869092 -0.0028181155102451018 0.006021905129963425
103898854 -0.0028640180210647587 0.006021783372389415
103928616 -0.0028977183445329222 0.006044235110624856
103958378 -0.0029310017258644934 0.006070717043739963
103988140 -0.002982810813164007 0.00610204528948115
104017902 -0.0030147622203564777 0.006129495834526874
104047664 -0.0030566770552288357 0.006146505220129504
104077426 -0.003098870320315954 0.006175860813040405
104107188 -0.003141841595154854 0.006198508034112458
104136950 -0.0031876708477322074 0.006219673237292921
104166712 -0.003224404691537207 0.006247309030618019
104196474 -0.003212023860608092 0.006291483870712807
104226236 -0.0032009864859388337 0.006330841537176799
104255998 -0.003180306146012923 0.006367499709105262
104285760 -0.0031732553415126765 0.006405733329027232
104315522 -0.003162468781846956 0.006450261179369371
104345284 -0.003144215899451575 0.006490626030098299
104375046 -0.0031273935861451706 0.006536612971915477
104404808 -0.003105499816148566 0.006572023266952262
104434570 -0.003085405847768604 0.006623839306571936
104464332 -0.003086717687196607 0.006595940070023342
104494094 -0.003095657063618125 0.0065346140797382735
104523856 -0.0030948297317048646 0.006475312327068504
104553618 -0.0030841232575930496 0.00642362965592837
104583380 -0.0030840752002017136 0.006360960039728795
104613142 -0.003088259047648596 0.006312274332617312
104642904 -0.0030836280878855514 0.006254592833939228
104672666 -0.0030868030992609267 0.006203950706772047
104702428 -0.003074310877009061 0.006145567813281274
104732190 -0.0030729678771025245 0.006136067333837163
104761952 -0.0030464934513565493 0.006208845098410109
104791714 -0.003027822050071323 0.006269735037399667
104821476 -0.0029974526939200307 0.006343201937609481
104851238 -0.0029720601515521787 0.0064052348219542435
104881000 -0.0029468977458299134 0.006467227454656248
104910762 -0.0029158640173495977 0.00654123468534069
104940524 -0.0028874382325977574 0.006612819933470246
104970286 -0.002855686433382987 0.006684358701220912
105000048 -0.002837846608807231 0.006755497964390669
