# HZ S RI R 50
90000000 0.000727641170558468 0.004309491348576376
90029762 0.0007738062783930705 0.004322235834056803
90059524 0.0005927818724161901 0.004313637814536092
90089286 0.0007327362848330395 0.004331297821903837
90119048 0.0005878787170639174 0.004323389566578345
90148810 0.0007308384068334419 0.004342843868324519
90178572 0.0007304819789810182 0.00434138319651339
90208334 0.000779077224096384 0.004346965255575472
90238096 0.0005991171716958997 0.004338020440673959
90267858 0.0007330663696979757 0.004342008225407828
90297620 0.000750218047287977 0.0043000658770551235
90327382 0.0008158102647335933 0.004239739456598144
90357144 0.0007948730800399396 0.004168413855250789
90386906 0.0008630249471457658 0.004102854949768549
90416668 0.0007179596446403355 0.004026015929132302
90446430 0.0008627713986513545 0.003969643457368968
90476192 0.0009228822519640469 0.0039020232975817072
90505954 0.0009463995950110065 0.00384172816054144
90535716 0.0009285070340374554 0.0037698051839738568
90565478 0.0009877753426964931 0.0037124698261913162
90595240 0.0009961110025798194 0.0036867965095222447
90625002 0.0010413679423620834 0.0036541625187200715
90654764 0.0011186574096817255 0.0036158193583992362
90684526 0.0011645393931618256 0.0035815311802519434
90714288 0.0011679044143058808 0.0035479759849584495
90744050 0.0012136978520951502 0.0035074939926755255
90773812 0.0012841196262680912 0.0034617545670870184
90803574 0.0012880309493948116 0.00342125753989195
90833336 0.0013610091079340767 0.003377707744034168
90863098 0.001384064329561934 0.0033116469669458915
90892860 0.0013705752942921828 0.0032481633046155148
90922622 0.001414528561936378 0.0031835807473751198
90952384 0.0014296270320474432 0.003114071206946876
90982146 0.0014092760647757612 0.0030519476945103713
91011908 0.0014589584768298206 0.0029814068917709048
91041670 0.0014416416472134274 0.0029158100459149134
91071432 0.00144616937966561 0.0028502501437935234
91101194 0.0013813170570549196 0.002792273365197586
91130956 0.0015016672065216513 0.0027339905285711295
91160718 0.0014684150572010538 0.002704303966715842
91190480 0.001469469767900908 0.0026725030635883075
91220242 0.0013831440801833053 0.0026540489214274565
91250004 0.0014652512347746102 0.0026043784066964123
91279766 0.0013845845370245948 0.0025761917392205427
91309528 0.0014835256665762173 0.002514478825863288
91339290 0.0014460824826626967 0.002483182659018368
91369052 0.00146078916284843 0.002439089056253311
91398814 0.001364860550235417 0.002398251276301752
91428576 0.001421468166618222 0.0023129631842545755
91458338 0.0014377291212426845 0.002220142578924734
91488100 0.0014045269367969208 0.0021417081156998447
91517862 0.001395496351968779 0.002069658703247186
91547624 0.0014038325925651383 0.0019776877329530113
91577386 0.0013888642269623956 0.0018987794666618957
91607148 0.0013530339401850585 0.0018151794890745494
91636910 0.0013400850429621622 0.0017339953227253325
91666672 0.0013314334823761847 0.001635749638471773
91696434 0.0013177376248367874 0.001555606363799379
91726196 0.0013253144644945769 0.0014529856058185311
91755958 0.0013354325536553593 0.0013518866654753086
91785720 0.0013041799037860746 0.001258678102941695
91815482 0.0013047881826922867 0.0011559244097111092
91845244 0.0012887134433604878 0.0010574890349936065
91875006 0.0012588197390367723 0.0009563553617140763
91904768 0.0011987019263362383 0.0008682583820571563
91934530 0.0011865954660297195 0.0007632172405886228
91964292 0.0011348082705208633 0.0006707731164728827
91994054 0.001100917173052804 0.0005879165715851853
92023816 0.0010292692554564615 0.0005233451115166321
92053578 0.000991195410116084 0.00042386883559516325
92083340 0.000903770860463678 0.00034863802380158225
92113102 0.0008372751463443619 0.0002718336850158129
92142864 0.0007769709783357774 0.0001800924699533931
92172626 0.0006985034203505342 9.75142975350745e-05
92202388 0.0006454437759947726 -1.41499504008224e-06
92232150 0.0005267403870620463 -5.17960066309899e-05
92261912 0.0004575763575383417 -0.0001651850516099298
92291674 0.00033699229282550054 -0.00021492463757367446
92321436 0.00022934316448253308 -0.00028155024738620347
92351198 0.0001332355416456318 -0.0003427254250043202
92380960 2.2127730209378674e-05 -0.00041885011573526416
92410722 -6.862049501809242e-05 -0.000484396490981476
92440484 -0.00021064376078468468 -0.0005140841866449245
92470246 -0.00030485913073571966 -0.0005805245393648577
92500008 -0.0003987483375891165 -0.0006499771367462933
92529770 -0.0005074263147761431 -0.0007091999932280504
92559532 -0.0006315910558448002 -0.0007282333009042086
92589294 -0.0007438716650848464 -0.0008152150408172075
92619056 -0.0008885571776558615 -0.00081659142352366
92648818 -0.0010002768313855782 -0.0008651026910922771
92678580 -0.0011373103712313407 -0.0009210213029097506
92708342 -0.0012570047969094104 -0.0009454229198781403
92738104 -0.0013900114617795474 -0.0009548341381231321
92767866 -0.0015240908230317856 -0.00100882329312779
92797628 -0.001668403100841136 -0.0009925662922554816
92827390 -0.001791959957555398 -0.0010321518148771454
92857152 -0.0019478890210756032 -0.001050302412944646
92886914 -0.0020625211934139982 -0.0011475833995113881
92916676 -0.0022332195723687534 -0.0009766660210691384
92946438 -0.00238248572056923 -0.0010134033346194404
92976200 -0.0025228405425231004 -0.0009853069016159733
93005962 -0.0026711611161889916 -0.0010922107781355037
93035724 -0.0027402930886232277 -0.0005704008251757432
93065486 -0.00295172034564351 -0.0009901043411277121
93095248 -0.0031064249711801922 -0.0007091737740514154
93125010 -0.003243048669170261 -0.0006768434452414276
93154772 -0.003352106406519931 -0.0005381858776235953
93184534 -0.003504649985464774 -0.0006344384720986359
93214296 -0.0035861635202094457 -0.00036782679895020924
93244058 -0.003734332237971106 -0.00041141994446362444
93273820 -0.0038085746548990273 -0.0001475877400429515
93303582 -0.003913982617939145 -2.4046641479848034e-05
93333344 -0.003954661397798102 0.0001608480401503967
93363106 -0.004066157048346696 0.00019627175234739964
93392868 -0.004179924548541802 0.00019835308677338952
93422630 -0.004256413756732172 0.00024557331000687354
93452392 -0.004327469224335473 0.00031293458909439404
93482154 -0.004420448547890517 0.0003297128063604526
93511916 -0.004484506114321514 0.00039054742985386646
93541678 -0.004553570531093336 0.00043955281880408097
93571440 -0.004657688394580514 0.00040502229864986693
93601202 -0.004692107420911688 0.0005023853809322975
93630964 -0.004751985971882675 0.0005917289960753328
93660726 -0.00482029995099113 0.0006954233680949534
93690488 -0.004833400528159175 0.0008585808044839035
93720250 -0.0049037846842248925 0.000955611180072008
93750012 -0.004945382502245492 0.001114272981305544
93779774 -0.004928313884301887 0.0012713378454829725
93809536 -0.0050604807883478905 0.0012511453910353091
93839298 -0.0050079852581048296 0.0014988741857732723
93869060 -0.005023883023893265 0.0016177735656454305
93898822 -0.004979574153539862 0.0017860320547464495
93928584 -0.005036713521831425 0.001823550641260292
93958346 -0.005003111671144161 0.001939935105020698
93988108 -0.005141255453228631 0.0018976936419564702
94017870 -0.005062848611799985 0.0020665427300101025
94047632 -0.005154938905450414 0.002061434142546265
94077394 -0.005037117712449642 0.0022395593639331565
94107156 -0.005055634806245429 0.002311192047113533
94136918 -0.005033716151850286 0.0024036939296495177
94166680 -0.0050585951895119165 0.0024326499715987917
94196442 -0.005348862595319732 0.0025967798020230344
94226204 -0.005769954437010124 0.002671890703595254
94255966 -0.005992970158196469 0.0029090390018846842
94285728 -0.006427461393992322 0.0030533754647036897
94315490 -0.006895828022736022 0.0032480445288642014
94345252 -0.007407090705038975 0.003428586527267823
94375014 -0.008053181633604476 0.0035676489190009956
94404776 -0.008732118674250283 0.003754523281227173
94434538 -0.009588029359831322 0.0038558375080928976
94464300 -0.00936663301250885 0.0038491768692599125
94494062 -0.00859598741431849 0.003857511098181706
94523824 -0.007909337997052035 0.0038142961019353543
94553586 -0.007363510838236245 0.003721517432276675
94583348 -0.006840663031603652 0.0036603189260145464
94613110 -0.0064078982736495505 0.0035774511357453812
94642872 -0.006035989815137248 0.00349885204753801
94672634 -0.005634638626229415 0.003442683429596187
94702396 -0.0053200819689795936 0.0033630829995213983
94732158 -0.005130365885187268 0.0033128625710690638
94761920 -0.005064495727512417 0.0033581823190776817
94791682 -0.0050613698652332674 0.003352135676290853
94821444 -0.004942535485054324 0.003422632210488904
94851206 -0.004951853733539213 0.0034143463141307756
94880968 -0.004818266665948093 0.0035014154238852744
94910730 -0.004778534276049129 0.00349706543734832
94940492 -0.00470128313676117 0.0035296707931326953
94970254 -0.004722299102266844 0.0035219098513104377
95000016 -0.004622389663941465 0.003580628297131631
95029778 -0.004684819324277656 0.0035937566568846366
95059540 -0.004668428569705184 0.0036476901152416126
95089302 -0.004691148024503069 0.003682552268519232
95119064 -0.0047013605699299885 0.0037384651696063197
95148826 -0.004781330349868143 0.0037482391437224966
95178588 -0.0047735538565413255 0.0037998043108428445
95208350 -0.004800988825542205 0.003831762359872928
95238112 -0.004816562050457487 0.0038689366999998848
95267874 -0.004863272089641828 0.0038903086410610127
95297636 -0.004851193479562955 0.003934050210299176
95327398 -0.004846658525618388 0.003971250725864097
95357160 -0.004864495270502074 0.003997325492986367
95386922 -0.004842819663207649 0.0040454962792133954
95416684 -0.0048308291099443575 0.004071160319236173
95446446 -0.0048390572349731875 0.004101152174272458
95476208 -0.004837654727356557 0.0041423331668610265
95505970 -0.004828993272068878 0.004166843867084765
95535732 -0.004828774173415104 0.004193975563083281
95565494 -0.004801112215410027 0.004232228292506929
95595256 -0.004770089805754062 0.004293145507457179
95625018 -0.004759540689134583 0.004348536183657187
95654780 -0.004728337183837449 0.004389307574622424
95684542 -0.004689030204699769 0.0044425023406399295
95714304 -0.004660087660096616 0.004492035063928859
95744066 -0.0046316885922931044 0.004547131685793937
95773828 -0.004618610074615823 0.004594230007607999
95803590 -0.0045767337022342225 0.004643964680503597
95833352 -0.004557385494130631 0.0046892094105713605
95863114 -0.004485461682112181 0.004683791124942863
95892876 -0.004440674690544276 0.004691363766703027
95922638 -0.004391490728317495 0.004683854051455015
95952400 -0.004339071378085328 0.004670776857650725
95982162 -0.004288660002799488 0.004670368749407348
96011924 -0.005094022547738995 0.004454876325597137
96041686 -0.004197465429664272 0.004663812357043873
96071448 -0.004152542438339104 0.004663652677598912
96101210 -0.004102921064373643 0.004651236773604061
96130972 -0.0048085718943185595 0.004490665810081301
96160734 -0.004097381092577356 0.004695216160328223
96190496 -0.004099754402069868 0.004729708277803161
96220258 -0.0041084585306898624 0.004751176035860702
96250020 -0.004108934904386148 0.00477549736833964
96279782 -0.00410915466790061 0.004793401572841144
96309544 -0.004207878779473714 0.004856583720740713
96339306 -0.004032178173423705 0.004858429414494285
96369068 -0.004127337733373859 0.004885144553003258
96398830 -0.004215735603092524 0.004917006472823995
96428592 -0.00412029093814522 0.004955740752539262
96458354 -0.0041131029125664915 0.0050077549877218805
96488116 -0.0033791692766706417 0.005175332617616371
96517878 -0.004259860274505589 0.0051182668377542494
96547640 -0.004061945194865631 0.005148521501670497
96577402 -0.0040581598061275835 0.00519385162502922
96607164 -0.00403910505813299 0.005237434300728374
96636926 -0.003301476237011926 0.005398492293384455
96666688 -0.004031100417503665 0.005328652925778432
96696450 -0.0039888542416877 0.005298725469651146
96726212 -0.003985498180099723 0.005252059994268369
96755974 -0.004720493212675051 0.0050926749170346185
96785736 -0.0039060839910735495 0.005174531760891131
96815498 -0.0046505274854332125 0.005008311108540101
96845260 -0.0038687184125500793 0.005103979562608205
96875022 -0.003837605949604919 0.005058133146299512
96904784 -0.003830923978184083 0.005018941982770156
96934546 -0.0037423173566706962 0.004990701464384896
96964308 -0.0038011927934777662 0.0049624960856197425
96994070 -0.003822566422310351 0.0049530746581140294
97023832 -0.0031985086186241637 0.005039731629474807
97053594 -0.0038788012955246753 0.004917227836825145
97083356 -0.003915000438898832 0.004892202351730713
97113118 -0.004642514177616119 0.004748582754997627
97142880 -0.003949560777684542 0.004875221750487197
97172642 -0.003336915051235253 0.004976129298564155
97202404 -0.004019482236525309 0.00483356756293066
97232166 -0.004016757974116655 0.004833931910164949
97261928 -0.004013510756799842 0.004853960045979418
97291690 -0.003985747841689107 0.004894724933452396
97321452 -0.0039607731266926805 0.004911018473013261
97351214 -0.003963589551642582 0.004931910853877549
97380976 -0.003944128641736495 0.0049596120706895605
97410738 -0.0039061144300399893 0.004999176486341346
97440500 -0.0038891424981441795 0.005027152259612252
97470262 -0.0032272624370194977 0.005161558147461475
97500024 -0.0038421023379135075 0.005085829607746887
97529786 -0.003862816733605321 0.00510904273034572
97559548 -0.0031918449261831698 0.00524266208441772
97589310 -0.003832830492650852 0.005179018637356105
97619072 -0.0037551367327916486 0.005219632534077596
97648834 -0.00384489904384194 0.005231991752733498
97678596 -0.003819933961362625 0.005270442307120386
97708358 -0.0031623641350616944 0.005395673421072622
97738120 -0.0038009823844070974 0.005333743542305139
97767882 -0.0038064579920996716 0.005361233597150763
97797644 -0.004445462562617345 0.0052788702109595
97827406 -0.003720953714115557 0.005382817148924275
97857168 -0.003630969922921477 0.005395462487633064
97886930 -0.003576177389997295 0.0054020163439763
97916692 -0.004148213488556952 0.005312536962887319
97946454 -0.003459522633886226 0.005414287718349536
97976216 -0.004022648558926664 0.0053229750157660115
98005978 -0.0027530136220699393 0.005503906017214634
98035740 -0.003296576724919848 0.005416374914334256
98065502 -0.00330538885632383 0.005428407648266583
98095264 -0.003363289852398192 0.005457637667030836
98125026 -0.0033884904600141974 0.005481874679238409
98154788 -0.0028527041934323645 0.0055878052438599266
98184550 -0.0035108292695633938 0.005527550901603085
98214312 -0.003578324902212182 0.005545265369208633
98244074 -0.0030109385439374254 0.005656859768544547
98273836 -0.0037339330984087512 0.005585979114394571
98303598 -0.0037702741823670205 0.005605090802523955
98333360 -0.003836070859512893 0.00562237914425958
98363122 -0.003868270958119968 0.0055892521855233765
98392884 -0.0038226184472176447 0.0055660905199962675
98422646 -0.0038540116870583933 0.00553505485385539
98452408 -0.00384705793223803 0.0055075215430194415
98482170 -0.003806014346466435 0.005485579067370504
98511932 -0.003834824128061546 0.005447015052336822
98541694 -0.003162769561412838 0.005517639503063249
98571456 -0.0037853994051726225 0.005395505640081714
98601218 -0.00439924377106225 0.005258601052198197
98630980 -0.0037518122477149906 0.005370858707539507
98660742 -0.003696307097010366 0.005403371634578145
98690504 -0.0030327005914941862 0.005510438275924085
98720266 -0.004212240808930562 0.005370993202452164
98750028 -0.0035502872917029956 0.005485340536357573
98779790 -0.0035020106989948094 0.00551372692202392
98809552 -0.0034863118779972385 0.0055299612786510865
98839314 -0.0033946273803017236 0.0055586894788375845
98869076 -0.003388022996227498 0.005579853461409843
98898838 -0.003919803924857277 0.00554152192126961
98928600 -0.003337224273296824 0.005620035123043459
98958362 -0.00394695027232015 0.0055696707325493516
98988124 -0.0034044166001504657 0.005646086002033968
99017886 -0.003380495858218078 0.0056752732575923075
99047648 -0.0034389813028700093 0.005678641247385661
99077410 -0.0031883853974160005 0.00562943600124084
99107172 -0.0034313973529875234 0.0057176220573237615
99136934 -0.003486037608651695 0.0057235214582188765
99166696 -0.0035052935715690257 0.0057417386269014055
99196458 -0.0034683331524111845 0.00572458744200567
99226220 -0.0034849771947348834 0.005695038096333252
99255982 -0.0036955918589296143 0.00569957221828036
99285744 -0.0035725916060907925 0.005673878935255621
99315506 -0.0035572487404255055 0.005614051728408646
99345268 -0.003572235772924457 0.005593719222240443
99375030 -0.0035338231575210224 0.005574432153119194
99404792 -0.003585807270601088 0.005543406248397328
99434554 -0.0035979100378051047 0.005520275225804744
99464316 -0.003513300397642421 0.005536548214409737
99494078 -0.0034843990584652973 0.005576010888654694
99523840 -0.0033612263296348846 0.005624755511773477
99553602 -0.0032878068098454566 0.005664350725307637
99583364 -0.0037556945236154695 0.005627612973559269
99613126 -0.0027027436569873483 0.005801615148358135
99642888 -0.0030661620041707053 0.005761027366545684
99672650 -0.0029904725461387294 0.005794131601930824
99702412 -0.003433221209269821 0.005775560259572258
99732174 -0.0028811639586661386 0.005837745738601049
99761936 -0.0027775990048284336 0.005826567367448911
99791698 -0.0030044432702960857 0.005780664519753593
99821460 -0.0029997987245774837 0.005752048463640431
99851222 -0.003091912908326765 0.005733127003471482
99880984 -0.0035954305281326766 0.00565569303932272
99910746 -0.0031085924970000174 0.005679788756696178
99940508 -0.003666796119737481 0.005591837104916245
99970270 -0.00318162803702462 0.005620216291013621
100000032 -0.0032273201794907687 0.005599048195048948
100029794 -0.0032092670391691194 0.005592016401832297
100059556 -0.0032000799366304115 0.005594194899604238
100089318 -0.00317603820462551 0.005596517350637622
100119080 -0.003162663612927312 0.005599227121094691
100148842 -0.0031612441463892307 0.005601711560665985
100178604 -0.003139664981014474 0.0056040467752197605
100208366 -0.0031228998092935533 0.005610526801847305
100238128 -0.003123167891129587 0.0056031025537041385
100267890 -0.0031014779667678373 0.005609914982213641
100297652 -0.0030989816326623103 0.005606713366300845
100327414 -0.0031021246006902215 0.005614537286688472
100357176 -0.003113517338460135 0.005618585152222001
100386938 -0.0031125025598350304 0.005612232198341063
100416700 -0.003117409156967812 0.005611053685037207
100446462 -0.003117817089048224 0.0056147104979870485
100476224 -0.003133443936965307 0.0056096309948554775
100505986 -0.0031389989525211085 0.00561476141680128
100535748 -0.0031352988762048777 0.005613374019838486
100565510 -0.003155539928091323 0.0056350713918381715
100595272 -0.003203196052364651 0.005674363568050031
100625034 -0.0032509171371736508 0.0057162831477865165
100654796 -0.003284634551459105 0.0057525204182276475
100684558 -0.0033324158674884054 0.005798885208694777
100714320 -0.003382618981429258 0.005843064650900062
100744082 -0.003430923482996434 0.005886609580535399
100773844 -0.003482069791414871 0.005925151046492043
100803606 -0.0035352996567319713 0.005968109682599948
100833368 -0.0035875812687510876 0.0060140672848671434
100863130 -0.003543006027624177 0.005992366210278491
100892892 -0.0034941426239979935 0.0059774186573837386
100922654 -0.0034460481459835496 0.005949804122502781
100952416 -0.003401293889063504 0.005933065341404368
100982178 -0.0033561262673229585 0.005906921177284678
101011940 -0.0033172593447945435 0.0058853536469426855
101041702 -0.003276379648934519 0.00586799847863043
101071464 -0.0032324152550944523 0.0058578673661096705
101101226 -0.0032011953813674923 0.00582873250977585
101130988 -0.0031802576555804837 0.005816265874065534
101160750 -0.003190382577367716 0.005811316665487404
101190512 -0.003201166188078754 0.00579747968592611
101220274 -0.003209842732558803 0.005788698278996181
101250036 -0.0032197341061153953 0.005783696862550994
101279798 -0.003228355440754535 0.005775490509494281
101309560 -0.00323600626232391 0.00576322506928253
101339322 -0.003233972701319806 0.005758425853346646
101369084 -0.003250145658454816 0.005751105724749822
101398846 -0.0032310901807254995 0.005762534435734457
101428608 -0.003177286592882923 0.005807640810535219
101458370 -0.0031135505771440306 0.005856511065531128
101488132 -0.0030511332170091274 0.005901047376383941
101517894 -0.002982098496149848 0.005945792873835126
101547656 -0.0029178851181121154 0.005987000280588187
101577418 -0.002857814216070621 0.006031264940744819
101607180 -0.002786906041952809 0.006071687752970702
101636942 -0.0027225698085428253 0.006115495109756592
101666704 -0.0026497424088598827 0.006150378755119014
101696466 -0.0027457997778728587 0.006113990769842246
101726228 -0.0028531667927038165 0.0060752552606237855
101755990 -0.002950868416882302 0.006037748951442458
101785752 -0.0030416754426126884 0.005994950243495906
101815514 -0.0031444838031102055 0.0059462032824409905
101845276 -0.0032416873062166207 0.005888202219294825
101875038 -0.003331777401897556 0.005829593975274459
101904800 -0.003424053406382052 0.005773434190072814
101934562 -0.003511292487356124 0.005707573880361289
101964324 -0.0034857562425902487 0.005712690973356405
101994086 -0.003399221313846053 0.005747883469811661
102023848 -0.003322803078161489 0.005780702008628659
102053610 -0.003232633059684476 0.005806863443389464
102083372 -0.003147562704934833 0.005832341969905741
102113134 -0.0030632767013133886 0.00585651771217571
102142896 -0.0029794371378714835 0.005880159335549757
102172658 -0.002899361377146579 0.005899126314007006
102202420 -0.0028075484259254936 0.005918761740634268
102232182 -0.002774222671321764 0.005945741554466409
102261944 -0.0028628996359774377 0.00597700323947069
102291706 -0.0029470558957051967 0.006012696095375569
102321468 -0.003042925830304899 0.006329911687316695
102351230 -0.003119467618293193 0.006077985493707105
102380992 -0.003214128400511138 0.006101799428156738
102410754 -0.0032383515962302375 0.006136669038713781
102440516 -0.0034106844772845897 0.0061628151069007195
102470278 -0.003508681464856721 0.0061903958664550444
102500040 -0.003620776523536783 0.006212914179179663
102529802 -0.0035554269584289577 0.006222924540912059
102559564 -0.0035097654841980135 0.006226629994644353
102589326 -0.003456310408116349 0.0062394729100960986
102619088 -0.003402312610916017 0.006246133669773123
102648850 -0.003348458813147692 0.00625142018111955
102678612 -0.0032997671595786956 0.006261725297962563
102708374 -0.0032506698741705574 0.006263758316414433
102738136 -0.003200973696610224 0.0062643923804844215
102767898 -0.0031464526487880685 0.006270699900390345
102797660 -0.0031270708066938623 0.006254590774993923
102827422 -0.0034902988237271947 0.0063303541211873334
102857184 -0.003122247026345226 0.006189520632687213
102886946 -0.003111199078534897 0.006160391096719528
102916708 -0.0031076027966267824 0.006133811671929276
102946470 -0.0031067613923040746 0.006104457117445224
102976232 -0.0030257873234302668 0.006058377447326365
103005994 -0.0030167100502237645 0.006036422878719672
103035756 -0.003014899160135515 0.0060082556212467655
103065518 -0.0030101779966656226 0.005997830755495566
103095280 -0.0030101650739573784 0.006021784812316426
103125042 -0.0030141061245550047 0.006047471800590052
103154804 -0.003017361234191389 0.006065456392414396
103184566 -0.0030960326091499435 0.006094900930816303
103214328 -0.003093007618168402 0.006130511635678776
103244090 -0.0030907082199139375 0.006152015224732043
103273852 -0.0030974634424762843 0.00617972527978866
103303614 -0.0030962111867690093 0.00619983431846892
103333376 -0.0030995977499333033 0.006225016362963076
103363138 -0.003020526331315252 0.006210306296235223
103392900 -0.002941254527015468 0.006199900935820325
103422662 -0.0028515577612273513 0.006177709737782568
103452424 -0.002783014233611627 0.006165915000618683
103482186 -0.002702545219359067 0.0061539420220573056
103511948 -0.0026194173522630358 0.006124690582572045
103541710 -0.002549019591981309 0.006106439827731381
103571472 -0.002472441820500338 0.006087138036398046
103601234 -0.0024061284650258325 0.006063236242717348
103630996 -0.0024114389154136703 0.00605591580459759
103660758 -0.002461136091263034 0.006057152337766942
103690520 -0.002507261452936287 0.006052348761849005
103720282 -0.002556270421131018 0.006052410713121275
103750044 -0.002609463300202472 0.006047324187548658
103779806 -0.0026553309893544673 0.006048675418057716
103809568 -0.002703948606244071 0.006041700964047022
103839330 -0.002759252845715603 0.006031676476126426
103869092 -0.002803985641459443 0.006023792856435134
103898854 -0.002861545452126897 0.00603263199253866
103928616 -0.0028963175759840346 0.00605312183207884
103958378 -0.0029247494641701506 0.006076727313617604
103988140 -0.0029648759391762694 0.006102862524977387
104017902 -0.003011499362656964 0.0061271807394106615
104047664 -0.003055758309417024 0.006153595609929877
104077426 -0.003088214068980365 0.006177091100986609
104107188 -0.003132622872219841 0.006205939243237037
104136950 -0.0031764103464974815 0.006222698115441242
104166712 -0.0032215564071263 0.006255395339742849
104196474 -0.00320754888569541 0.006290930062605357
104226236 -0.0032007830230647485 0.006326192837889486
104255998 -0.0031831639095485573 0.006367950050693494
104285760 -0.0031668760536581356 0.0064112756600108066
104315522 -0.0031575997289375103 0.006453460064152499
104345284 -0.003137318493157564 0.0064971727741470284
104375046 -0.0031221799422352643 0.006532249732420561
104404808 -0.0031127626051493306 0.006579791016396813
104434570 -0.0030919831272473784 0.006620743729469387
104464332 -0.003092095758449782 0.006597171336765923
104494094 -0.003088311090907382 0.006538608952147367
104523856 -0.0030886487114274333 0.006481061458075234
104553618 -0.0030891248916478744 0.0064262990467282306
104583380 -0.0030825674010780545 0.006364712464442495
104613142 -0.003091588894576695 0.006313051626645434
104642904 -0.003082513051394543 0.006261277938791749
104672666 -0.0030868143411624453 0.006203710063828373
104702428 -0.003080305879136088 0.00615750178794389
104732190 -0.003080402112927235 0.006139350879591699
104761952 -0.003048557708984564 0.006205746392603404
104791714 -0.0030262381107962182 0.006271779339474307
104821476 -0.003000942673645762 0.0063406886030927595
104851238 -0.002975500257295429 0.006412511738271832
104881000 -0.002945258452494818 0.006471185639081164
104910762 -0.002923182358182136 0.0065430657958341805
104940524 -0.002893969856148961 0.0066179275733344
104970286 -0.002865427241816798 0.006679574641530128
105000048 -0.002839047951724742 0.0067549058738984565
