# HZ S RI R 50
90000000 0.0007535048731084964 0.004264562745730037
90029762 0.0007980098299051741 0.004270776834878754
90059524 0.000616839384339335 0.004267096147104267
90089286 0.0007569768031831966 0.004275801689319902
90119048 0.0006175734995855234 0.004274688615034433
90148810 0.0007568338867151546 0.004282229403715646
90178572 0.0007603096929050648 0.004285214140899269
90208334 0.0008034893794071756 0.0042909689344111145
90238096 0.0006235194244960464 0.0042786119615145085
90267858 0.0007597688692962086 0.004284864575748186
90297620 0.0007732344589214436 0.004237517221006307
90327382 0.0008419750068838259 0.00416917154843502
90357144 0.0008286215729878814 0.00410196015629947
90386906 0.0008900436073781653 0.0040361697173473595
90416668 0.0007444208764874655 0.003962687744435314
90446430 0.0008858663770324812 0.003905402055728574
90476192 0.0009513086970768907 0.003834323393907023
90505954 0.000966442102927475 0.003767200495968178
90535716 0.0009517218489330145 0.003703383696825173
90565478 0.0010119677716796836 0.003647742561531558
90595240 0.0010214419039665942 0.0036112505520235812
90625002 0.001063021877836466 0.0035771745476214784
90654764 0.0011348997974853598 0.003542237953659567
90684526 0.0011786570069016 0.0035025358324293353
90714288 0.0011842472023882867 0.00347129461240495
90744050 0.001223581473262283 0.0034218013875402663
90773812 0.0012951984383905428 0.003379742744498921
90803574 0.0013042645389060733 0.0033333267408328345
90833336 0.001376313048266235 0.003281417893313699
90863098 0.0013937088380879502 0.0032146524582108383
90892860 0.0013763324034886536 0.003159776355092427
90922622 0.001426488418840752 0.0030854547813824068
90952384 0.0014351743840529296 0.00302095386659548
90982146 0.0014167161102723088 0.0029547288787072665
91011908 0.0014565646291501112 0.0028807490153725523
91041670 0.0014394917800884422 0.0028103470325749453
91071432 0.0014596526198609068 0.0027488384782697038
91101194 0.0013754768857861131 0.002683321417329128
91130956 0.0014962743720937097 0.0026217896124214
91160718 0.0014636188354008562 0.0025957033241774505
91190480 0.0014555747602376732 0.0025584779045611946
91220242 0.0013759920442912364 0.002528651380663472
91250004 0.0014481073077232053 0.0024830846807763667
91279766 0.0013761744201480702 0.0024505341512471813
91309528 0.0014605360597179358 0.0023860241545978845
91339290 0.0014294837742003558 0.0023452862318119553
91369052 0.0014439603928254076 0.0022987319908565926
91398814 0.0013494781722994753 0.0022585878540922802
91428576 0.001403404406732001 0.0021629956120926765
91458338 0.0014050835151557999 0.002084253255968854
91488100 0.001385457829643216 0.0020043803054693643
91517862 0.001359674154735913 0.0019229038937446366
91547624 0.0013581731070314627 0.0018362998367723842
91577386 0.0013472764579347124 0.0017423872858105707
91607148 0.0013062491849099981 0.0016619659537119233
91636910 0.0012877687728777 0.001577615576515238
91666672 0.0012723846662762266 0.0014861186398786642
91696434 0.0012573959156863559 0.0014011405185043087
91726196 0.0012750415732885679 0.001297631885450158
91755958 0.0012582668782482442 0.0011970418665720906
91785720 0.001227744856644455 0.0011011717068046295
91815482 0.0012099523722818306 0.0009947194030558131
91845244 0.0011926273837641309 0.000899013894057417
91875006 0.0011421454758279053 0.000799558849047679
91904768 0.0010894140066884804 0.0006980911132319657
91934530 0.001056067226267586 0.0006159747485836814
91964292 0.0010073547218473074 0.000519419719657864
91994054 0.0009537819817514928 0.000434499603964917
92023816 0.0008830998407177301 0.00036850988390988923
92053578 0.0008119937086392745 0.00028751099939974893
92083340 0.0007367890951406376 0.00021601250383912363
92113102 0.0006759915988407632 0.00011938443915218563
92142864 0.0005845041511067049 4.668176632173231e-05
92172626 0.0004973920252724273 -4.115012614933715e-05
92202388 0.0004402440225361249 -0.00013810175594573357
92232150 0.00031775900835720764 -0.0001893051754028508
92261912 0.00024177807045244455 -0.00029426299071383795
92291674 0.00011381826883645542 -0.00031545046604417764
92321436 2.1377210851455564e-05 -0.0003909333176332829
92351198 -9.966076266388938e-05 -0.0004511699637734282
92380960 -0.00018916693395098946 -0.0005203227552287184
92410722 -0.00031949093587298227 -0.0005906276056717888
92440484 -0.0004282432543399247 -0.0006038796485500642
92470246 -0.0005383764207411609 -0.0006595968823658334
92500008 -0.0006424961094473556 -0.0007058369301989937
92529770 -0.0007534219323982465 -0.0007597721612821927
92559532 -0.000878325977218649 -0.000792667641875831
92589294 -0.00099183136988622 -0.0008628735925626603
92619056 -0.0011347781108828484 -0.000868930300074009
92648818 -0.0012672691685443956 -0.0008906943746095127
92678580 -0.0013845527756730905 -0.0009418814773311577
92708342 -0.0015361903671475634 -0.000940801044882964
92738104 -0.0016537103150776617 -0.000957760803172774
92767866 -0.0017827239473737974 -0.0010145684809118479
92797628 -0.0019388452256073375 -0.0009900078003518293
92827390 -0.0020704616945007716 -0.0010000590618954486
92857152 -0.0022129831279067997 -0.0010034361447087547
92886914 -0.002330050167702901 -0.0010996717751570859
92916676 -0.0025040652421810857 -0.0008986924879807108
92946438 -0.00263030873553865 -0.0009315231621783553
92976200 -0.002785542371271107 -0.0008952245425803747
93005962 -0.002922065504301593 -0.000985913822975113
93035724 -0.00307369779678436 -0.0007839468260632874
93065486 -0.003198319393500488 -0.0008904883327969542
93095248 -0.0033209460732015333 -0.0006053418402460587
93125010 -0.0034492818254266084 -0.0005365873361591415
93154772 -0.003563014812768486 -0.00038301613893263674
93184534 -0.0037057059667178513 -0.0004625159172985491
93214296 -0.0037890868450476773 -0.00022448672522986662
93244058 -0.003917612771527839 -0.0002264787949465166
93273820 -0.003973470436570936 3.5057908467569685e-05
93303582 -0.004049385107128027 0.00017814318898888158
93333344 -0.0041155027056479394 0.0003532849242595885
93363106 -0.004193015589368327 0.0003924354497723412
93392868 -0.0043073235054347046 0.0003923608600631138
93422630 -0.004382477453172589 0.0004396400660756776
93452392 -0.0044341043437436415 0.0005235622360445683
93482154 -0.004545784775969793 0.0004989032942897135
93511916 -0.004592392297490629 0.0005939424199570787
93541678 -0.004660303264953943 0.0006160853067410936
93571440 -0.004746699322004885 0.0006064031963369586
93601202 -0.004791234644402058 0.0006772900460504554
93630964 -0.004827594105876514 0.000767892023289104
93660726 -0.004887689212208382 0.0008488372238279041
93690488 -0.00491152928177566 0.0010501797580260812
93720250 -0.004975092492995222 0.001138613578254882
93750012 -0.005008085707905021 0.0012687431796480915
93779774 -0.004977620732161385 0.0014415884585156791
93809536 -0.005112101387336121 0.0014350784831171908
93839298 -0.005029359287576277 0.0016759865703351049
93869060 -0.0050355294957715015 0.001795490276302585
93898822 -0.005021251846012919 0.0019349681266998
93928584 -0.005050821776922727 0.002002339743068799
93958346 -0.005035289209166614 0.002101034112284297
93988108 -0.005163196785028222 0.0020612464450019195
94017870 -0.005068091221581919 0.00222307071438823
94047632 -0.005089418230393379 0.002272956318539492
94077394 -0.004950592936832207 0.0024473524970414526
94107156 -0.004983481054066451 0.0025000812185682632
94136918 -0.004944443088200257 0.0025854343751713148
94166680 -0.004960171732848468 0.0026201520374971136
94196442 -0.005246941225933867 0.002780041033967697
94226204 -0.005663310169867642 0.0028704107994707998
94255966 -0.0059925565107026 0.0030675964018660384
94285728 -0.006425705139396285 0.003228262030815817
94315490 -0.0068726681296574854 0.0034043298735641123
94345252 -0.007388391038434653 0.0036066304518620265
94375014 -0.008041661694825536 0.0037353470238112134
94404776 -0.008719359705501781 0.0039379481661365985
94434538 -0.009571876289716884 0.0040750501388125224
94464300 -0.009348149912411115 0.0040819770924998755
94494062 -0.00855228388896582 0.004035753898002653
94523824 -0.00787542241473573 0.003979123097664263
94553586 -0.007357253450351213 0.003867306605242617
94583348 -0.006797476666831699 0.003800220420891462
94613110 -0.00639240613669915 0.003704250373424344
94642872 -0.006004113649846547 0.0036143931282228083
94672634 -0.005612008297299679 0.003542284278963149
94702396 -0.005296143954620254 0.0034639701388115246
94732158 -0.005100649596455844 0.003403807018683531
94761920 -0.005042036786257927 0.003448175817426418
94791682 -0.005048966652195202 0.0034346634680740558
94821444 -0.004928163958995614 0.003493874060388765
94851206 -0.004914245580069383 0.0035171843740088196
94880968 -0.004785232108531656 0.003561080220363417
94910730 -0.004745065639540141 0.003578968900773961
94940492 -0.004685125042389449 0.0036038381534253534
94970254 -0.004680914328329484 0.0036052612776665944
95000016 -0.004590263696500502 0.0036445870215702156
95029778 -0.004661152952634793 0.0036655641610118784
95059540 -0.00464496655522324 0.003723175167003433
95089302 -0.004668144211240185 0.003763445145788231
95119064 -0.004672530323939795 0.0037895212355679333
95148826 -0.004761057043403182 0.0038113452917684326
95178588 -0.00474977157019316 0.0038670641257317773
95208350 -0.004770911281498153 0.00390563492677827
95238112 -0.004784041966272091 0.003931542354867359
95267874 -0.004843879287447439 0.003964491619760694
95297636 -0.004828489935346494 0.004002285287273641
95327398 -0.004829877870974201 0.004031075687674639
95357160 -0.004828544965195504 0.004065558385161168
95386922 -0.004818228445262149 0.004095050364041112
95416684 -0.004803778845074866 0.004137516659303174
95446446 -0.004812752242423933 0.004162795527669558
95476208 -0.004798856822674601 0.004187800827976607
95505970 -0.00479186430022855 0.004222305133276189
95535732 -0.004793662510740045 0.004247291567218544
95565494 -0.00477317624880287 0.0042895443755093104
95595256 -0.004749527082173538 0.004336816986515835
95625018 -0.004733587123442786 0.004390807264314775
95654780 -0.004694816027661806 0.00444498646357904
95684542 -0.004666092103997407 0.004497990210037756
95714304 -0.004640795611323879 0.004541348866104036
95744066 -0.004603419941556006 0.004598913397300846
95773828 -0.004590755437573186 0.004637188380678641
95803590 -0.004552008584951541 0.004687603219600549
95833352 -0.004531751025840596 0.004729617292881085
95863114 -0.004459559004621754 0.004730944895122501
95892876 -0.004411044416431991 0.004730740538826961
95922638 -0.004354510436173173 0.004717130436793156
95952400 -0.004313512392224163 0.0047211562280471825
95982162 -0.0042565294833877545 0.004713952221970414
96011924 -0.005041589026172545 0.004506504317850912
96041686 -0.004159531547788977 0.0046979750147092434
96071448 -0.00410867584149359 0.004694805294633254
96101210 -0.00406137948040427 0.004693221337766748
96130972 -0.0048557730156300076 0.004521402646582861
96160734 -0.004055977780091476 0.004730201485802649
96190496 -0.004059674638984215 0.004762463363687318
96220258 -0.004067633195075513 0.004785220348415794
96250020 -0.00406030960721351 0.0048112995532399285
96279782 -0.004075074826153459 0.004843184233880021
96309544 -0.004084269966706538 0.004866371570098215
96339306 -0.004086077999765567 0.004894652929656945
96369068 -0.004094688063271257 0.004916437269773214
96398830 -0.004089786372521877 0.004949765073830429
96428592 -0.00407492839549524 0.004986683334034969
96458354 -0.004071133344510358 0.005035528471073293
96488116 -0.003341780235308469 0.0052005937264673115
96517878 -0.004041217650734859 0.005135434648549043
96547640 -0.004022459579064904 0.005185341843220772
96577402 -0.004015240529716146 0.005232077145974812
96607164 -0.003995018030797493 0.005275848009397567
96636926 -0.0032672583562725795 0.0054256043770833816
96666688 -0.003980109175404195 0.005362985362628304
96696450 -0.003944312755880923 0.005328914984498591
96726212 -0.0039321463774584405 0.00528250546720505
96755974 -0.004678703062171712 0.005118272851411485
96785736 -0.003875467836349206 0.005204828775330377
96815498 -0.004610478920651376 0.005039117604781966
96845260 -0.0038221324022872545 0.005125704797039267
96875022 -0.0038044395434594933 0.00508291889276627
96904784 -0.0037931407911974504 0.005043408688956572
96934546 -0.0037145363371569986 0.0050156719620586855
96964308 -0.0037660958357053818 0.004988662344750535
96994070 -0.003783849822566676 0.004980335503403745
97023832 -0.0031632343548191454 0.005069123748341761
97053594 -0.003843834781793962 0.004943462060210233
97083356 -0.003880374162911466 0.004924468539286289
97113118 -0.004598112680322757 0.004771963831477163
97142880 -0.003926727253068122 0.004899461802102373
97172642 -0.0033080333603677384 0.004997724843043378
97202404 -0.003990136687563336 0.004855244506631225
97232166 -0.003982010725613496 0.004852773557352633
97261928 -0.0039848993005772385 0.0048821774021609
97291690 -0.003953697847137301 0.004911615466654736
97321452 -0.0039306847017368755 0.004931442832524261
97351214 -0.003927258142282866 0.004957959918017383
97380976 -0.003910400063993501 0.004984134612932468
97410738 -0.0038740409907221033 0.0050129955997408335
97440500 -0.003857990321002899 0.0050416527385877385
97470262 -0.0032034067463588465 0.005176643600217032
97500024 -0.0038205554233740995 0.005095230296778138
97529786 -0.0038380257331636653 0.00512415000960875
97559548 -0.0031646131821708163 0.00526411409943225
97589310 -0.0037978275901564646 0.005185639751171094
97619072 -0.0037309311331043924 0.005230902972272748
97648834 -0.0038094436553219135 0.005251671040578854
97678596 -0.0037876308623635284 0.005284841546878953
97708358 -0.0031350263859388724 0.005413260981074814
97738120 -0.0037764362164606825 0.005347643180176458
97767882 -0.0037704195927766525 0.005381224782949925
97797644 -0.0044014082726439975 0.005295289222959697
97827406 -0.003692283526452185 0.005398478836565545
97857168 -0.0036041190041366604 0.00541285847259649
97886930 -0.0035402022289168834 0.005417934892470178
97916692 -0.0041241357086968 0.005332005640297932
97946454 -0.00343583200581424 0.005429580122303179
97976216 -0.003989721619464286 0.005337804476044584
98005978 -0.0027290080245427986 0.005511702858829804
98035740 -0.0032654241331478945 0.005433442362208422
98065502 -0.003279216084575466 0.005442620862369583
98095264 -0.0033394236180807543 0.005467339822719252
98125026 -0.003364792920067458 0.005496625708592278
98154788 -0.0028213883288825767 0.00560479899762959
98184550 -0.0034879121171076098 0.005536025920104918
98214312 -0.0035421921754435776 0.005562833051571295
98244074 -0.0029867914376727287 0.005666070588654544
98273836 -0.003709600489528621 0.005591746623023531
98303598 -0.0037474834176486616 0.005625293897310841
98333360 -0.0038180510526040824 0.005635377866009786
98363122 -0.0038439928213855256 0.005603844249001778
98392884 -0.0037991138201866675 0.005584074246362885
98422646 -0.0038280525880893574 0.005552081674735436
98452408 -0.0038261112317990354 0.005510200337722832
98482170 -0.0037756941286500806 0.0054947801732593915
98511932 -0.0038080069213798223 0.00545660725591762
98541694 -0.003143665026375612 0.005529798193102461
98571456 -0.0037609344362441177 0.005401450730298501
98601218 -0.004373321351412497 0.005276031169459769
98630980 -0.0037156806090079203 0.005391482929698277
98660742 -0.0036744299757547707 0.005407498241547342
98690504 -0.0030092528709003245 0.005518261262083349
98720266 -0.004178127438954658 0.005383868273011034
98750028 -0.0035264540314080693 0.005493221687003269
98779790 -0.003475446256177038 0.0055205210339878555
98809552 -0.0034659095235191036 0.005537646316913332
98839314 -0.0033757966415704837 0.005563980705683555
98869076 -0.0033640844156732747 0.005581743024565995
98898838 -0.0038966084044215234 0.005551848793715091
98928600 -0.003311010408710064 0.005617818761583083
98958362 -0.003919202836056936 0.005584172499751488
98988124 -0.0033836907601551905 0.005653759485806095
99017886 -0.0033528836226313515 0.00567458921796844
99047648 -0.003410445774919045 0.005687004370985283
99077410 -0.003384127968785323 0.0057063458347999104
99107172 -0.0034045219257643465 0.005719502536823324
99136934 -0.0034615515513220308 0.005726984554288282
99166696 -0.0034759553252453838 0.005748555326229973
99196458 -0.0034407990903108595 0.005723464453803323
99226220 -0.003451025537505351 0.0057020288657490936
99255982 -0.0035113334029282 0.0056786403813778525
99285744 -0.0034798718608849625 0.005652251173694146
99315506 -0.003539838925817028 0.005615451765658431
99345268 -0.0035475401784491344 0.005597822959616115
99375030 -0.003514031178347382 0.005577094595636313
99404792 -0.0035667968932045157 0.005546431570734252
99434554 -0.003576572705610832 0.0055217629188122576
99464316 -0.003485449732992912 0.005547238094444091
99494078 -0.003456200872135495 0.005583082391259473
99523840 -0.00334204129177525 0.005625547390687832
99553602 -0.003271921999295399 0.005665160860187355
99583364 -0.003733542588177698 0.005640042282781829
99613126 -0.002552738608929428 0.005789479563066757
99642888 -0.0030494995833313596 0.005766544116497494
99672650 -0.002975720772750735 0.005791830473439458
99702412 -0.0034164662821723735 0.0057772973795437235
99732174 -0.002856789819270718 0.00583198013841894
99761936 -0.002759125567147423 0.005818036089091242
99791698 -0.0029906178550274443 0.005780435679276434
99821460 -0.0029752229107198346 0.0057640130677566095
99851222 -0.00306907721219856 0.005728915625513836
99880984 -0.003576338308988719 0.005652253952310856
99910746 -0.0030955784193568195 0.005678582873720335
99940508 -0.003654303946870596 0.005587500256960968
99970270 -0.0031623648649601534 0.005614878417403755
100000032 -0.0032039954175305907 0.005599193101562964
100029794 -0.0031885647784797326 0.005593210010133836
100059556 -0.0031721490576360873 0.005588180207495896
100089318 -0.003157540668872785 0.0055903321849457965
100119080 -0.003142750022998877 0.005593909457146916
100148842 -0.00313123752405879 0.0055952105232208735
100178604 -0.003119457770972547 0.005598520153871236
100208366 -0.003113721838781006 0.005600273600050377
100238128 -0.0030968749632012712 0.0056044619382146135
100267890 -0.003080958097704328 0.005604698060038236
100297652 -0.003078885975731797 0.005606381727720763
100327414 -0.0030832451862178503 0.005606594522121675
100357176 -0.003091485495972614 0.0056071285645568755
100386938 -0.0030967679984155623 0.005610410183447844
100416700 -0.0030964710570349978 0.005615471982872962
100446462 -0.003114193867390947 0.005607133535058463
100476224 -0.003113622344936421 0.00561101572471312
100505986 -0.003116832176051992 0.005612727617565221
100535748 -0.0031253478383030395 0.005611348861567218
100565510 -0.00314210575685629 0.005635214946658315
100595272 -0.0031882111640823226 0.005664378037904349
100625034 -0.00323197321675314 0.0057112850457674376
100654796 -0.0032732092591744775 0.005749568449025021
100684558 -0.00331622623206777 0.005796817633520268
100714320 -0.003360460466442049 0.005835555411829577
100744082 -0.0034205500707524647 0.00586215662946698
100773844 -0.0034676081695304535 0.0059200600083557575
100803606 -0.003519245149883176 0.005964979074040857
100833368 -0.0035725306556452134 0.006010867447586004
100863130 -0.0035226748754085256 0.005987835311254841
100892892 -0.0034840289984411706 0.005947603867499515
100922654 -0.003440153508710539 0.005948093292065903
100952416 -0.003390942087350725 0.005926123861415106
100982178 -0.00334081839704656 0.005913715634663457
101011940 -0.0033043944234462017 0.0058856668782151745
101041702 -0.0032582435527033766 0.005866263017385787
101071464 -0.0032225672865771895 0.005836690358516017
101101226 -0.003172411458086376 0.005821404214997743
101130988 -0.0031699188038980066 0.0058110274772966925
101160750 -0.003101802453275 0.005786896155244885
101190512 -0.003186230541825699 0.005793814606124541
101220274 -0.0031989371134006515 0.005781611149025829
101250036 -0.0032108133184501043 0.00577654064369512
101279798 -0.003139640004302216 0.005762709900851018
101309560 -0.003157987572681066 0.005757014721559054
101339322 -0.003161526974594342 0.005747883950460705
101369084 -0.003244258769815029 0.005741785294595064
101398846 -0.0032268239553472173 0.005749961874768562
101428608 -0.0031645217901622056 0.005799867687043831
101458370 -0.003103722996948698 0.00584820908378804
101488132 -0.0030454430223041174 0.00589256589392696
101517894 -0.002971206459167062 0.005939671256794613
101547656 -0.002910623818198656 0.005984119757857398
101577418 -0.0028485097159201924 0.006023796210348343
101607180 -0.002773881110758271 0.006068808114528335
101636942 -0.002717707450338094 0.006104004980832605
101666704 -0.0026448031264214886 0.006141734123185303
101696466 -0.0027388073560632087 0.006106458245250302
101726228 -0.002842712886174023 0.006069875228811494
101755990 -0.0029448637722381942 0.006034425411704303
101785752 -0.003040693729382437 0.0059802709190018835
101815514 -0.003136942893925065 0.00593185075195634
101845276 -0.00323248862039534 0.005879668264905505
101875038 -0.0033313693704858354 0.005828662424515346
101904800 -0.0034214724261972303 0.005751613968726486
101934562 -0.0035052808776856403 0.005708512055597523
101964324 -0.003487639502662006 0.005704797235608926
101994086 -0.0033996747706449243 0.005738482366138866
102023848 -0.003310188058627886 0.005777564902255107
102053610 -0.0032292906759573874 0.00580162507811782
102083372 -0.003145596798633851 0.00582618421246817
102113134 -0.0030547106836962294 0.005850823170606724
102142896 -0.002975483537816645 0.0058702975884837565
102172658 -0.00289159159029308 0.005898518147880629
102202420 -0.0028039541666906457 0.005908659294258707
102232182 -0.0027703135608061888 0.005934354485744771
102261944 -0.002854231791369765 0.005971236563496388
102291706 -0.002937054615822912 0.006006043300307752
102321468 -0.003026711415531527 0.0060401913584496696
102351230 -0.0031152006710321637 0.0060737190926202595
102380992 -0.0032181110808886717 0.006101957531341994
102410754 -0.0033053411829838688 0.006129250110893042
102440516 -0.00339654771842891 0.006154880060210602
102470278 -0.003506517996807948 0.0061841003779436795
102500040 -0.0036113406210282893 0.006207643929262317
102529802 -0.003555543476344736 0.006214559360876606
102559564 -0.0035033747490544106 0.006224423367553916
102589326 -0.0034505854483276688 0.006229952680693133
102619088 -0.0034117805842320474 0.006234312372237452
102648850 -0.0033500588591926493 0.006248254861393913
102678612 -0.003300379160552393 0.006253777788391234
102708374 -0.003252227515121917 0.006260689336445692
102738136 -0.003192502333185677 0.006257828336392566
102767898 -0.003145674326136206 0.0062688948791429396
102797660 -0.003129010308504005 0.0062553570107001365
102827422 -0.0031190875426301127 0.006220216870878619
102857184 -0.003111208880277305 0.006188120926783114
102886946 -0.0031132530736265856 0.006159477032902834
102916708 -0.0031017690853245624 0.006126754864662928
102946470 -0.003098250047841775 0.006099353895740155
102976232 -0.0030898221902039783 0.00606967324659412
103005994 -0.0030856449423193187 0.006041269722060338
103035756 -0.00308548288214332 0.006006926194872816
103065518 -0.0030789547141694554 0.005991892269689458
103095280 -0.0030837108576884393 0.006019955815240051
103125042 -0.0030751370593053873 0.006041782515087938
103154804 -0.003093803489057035 0.00606383058031289
103184566 -0.0030879580748397984 0.006094176074862445
103214328 -0.0030940595504820455 0.006118773107859445
103244090 -0.0030932532819119046 0.006148204286845755
103273852 -0.003097247520936459 0.006169687615029282
103303614 -0.003099071022103055 0.006193256101158809
103333376 -0.0031089099606623053 0.006222464135637278
103363138 -0.003015738295917668 0.006204604450554922
103392900 -0.0029365266065783046 0.006197361560630252
103422662 -0.0028585793147352986 0.006170269002879284
103452424 -0.0027800496715661284 0.006158656136203466
103482186 -0.0027007071831285576 0.006137605951894989
103511948 -0.00262566017226366 0.006117924088294015
103541710 -0.0025480690587425586 0.006097155995099085
103571472 -0.0024743454148548082 0.006079345660631537
103601234 -0.0024032443475667333 0.006054404082869468
103630996 -0.002413252059770996 0.006049173315618974
103660758 -0.0024507694012646406 0.006049303603828914
103690520 -0.002503496180951723 0.006044287283309535
103720282 -0.0025571348547613706 0.0060448090318582235
103750044 -0.0026034641509111757 0.006048592757313279
103779806 -0.002650974457997833 0.006034524755395777
103809568 -0.002701459860833993 0.0060281023575605676
103839330 -0.0027554012340735815 0.006023791439375899
103869092 -0.00280400775292926 0.006018443339683899
103898854 -0.0028455789605834427 0.0060230265709486416
103928616 -0.0028829730200469663 0.0060453622107436876
103958378 -0.0029220418269019894 0.0060763372248000755
103988140 -0.0029714927384914317 0.006107428746738697
104017902 -0.003000415011559608 0.006121505923082264
104047664 -0.003037462301318182 0.006144324895827266
104077426 -0.0030854836658282554 0.006173711866491858
104107188 -0.003126439387745483 0.006200660214384204
104136950 -0.0031676391142300793 0.006219530584427646
104166712 -0.00321219531919934 0.006239885514214374
104196474 -0.003200527297710696 0.006283868655095531
104226236 -0.003189849845046943 0.006326921296058469
104255998 -0.0031725655941130465 0.006366069423115022
104285760 -0.003158429155726452 0.006408676532318981
104315522 -0.0031421414936199455 0.00645266387289257
104345284 -0.0031316393384077544 0.006491386135284029
104375046 -0.003111010250438476 0.00653253759065622
104404808 -0.003096749216030693 0.006573696678059171
104434570 -0.0030813243694550285 0.0066200816105034255
104464332 -0.003084487197412093 0.006595855732676331
104494094 -0.0030733484854949073 0.006532019794516267
104523856 -0.003077429556913631 0.006478428344443926
104553618 -0.0030804560765355683 0.0064170981303608154
104583380 -0.0030820105098960287 0.006369789932224467
104613142 -0.0030718047667651874 0.00630416333858637
104642904 -0.0030715743934663173 0.006258644435195034
104672666 -0.003068581398130338 0.006201775418703553
104702428 -0.0030608628176594594 0.006147086891468962
104732190 -0.0030623711501974573 0.0061365014312141425
104761952 -0.003036022309125986 0.006196940289205056
104791714 -0.0030121286001398052 0.006265219509270954
104821476 -0.002988747082910085 0.006329784019287162
104851238 -0.0029581372812751234 0.006404928522711259
104881000 -0.0029319543245322935 0.006470537662785607
104910762 -0.0029041881028512035 0.006534495586976398
104940524 -0.0028708933214869232 0.006612099524687827
104970286 -0.00284631809369498 0.006677211380822828
105000048 -0.00281820276521285 0.006748194338906433
