# HZ S RI R 50
90000000 -0.0009948555509467648 0.005526283911547359
90029762 -0.0009697186308796586 0.005558736758929456
90059524 -0.0012178014939962123 0.005584666850889538
90089286 -0.0010827782534833454 0.005623627863451159
90119048 -0.0012806793558804953 0.0056496151430690264
90148810 -0.001163197902398499 0.0056926808755787175
90178572 -0.001284108323970343 0.005730219725713211
90208334 -0.0011563670511727595 0.00576301603410878
90238096 -0.0014150685565096307 0.00578406755639141
90267858 -0.001280384235837678 0.005827941910375937
90297620 -0.0012733072823240025 0.005810817734587331
90327382 -0.0012105101289008912 0.0057681558795947075
90357144 -0.0012182071363121118 0.005719196285188172
90386906 -0.0011385428064919097 0.005681970072475747
90416668 -0.0013227231235979835 0.005630855040592049
90446430 -0.001141150720227001 0.005595710486396493
90476192 -0.001097726252775774 0.005557927968696636
90505954 -0.0010404218789397722 0.00551675253990516
90535716 -0.001064298307190693 0.005472772371286747
90565478 -0.0009880426837745593 0.005456974259300477
90595240 -0.0010388219433007267 0.005467727555010494
90625002 -0.0009703418419000787 0.005485818867829888
90654764 -0.0008861031160302061 0.0055035159155560455
90684526 -0.0008514273001703178 0.005519599014009249
90714288 -0.0008653568489099905 0.005535710168811291
90744050 -0.0008314755268059227 0.005549599509525537
90773812 -0.0007457583255592993 0.005564910229235333
90803574 -0.0007562469848900441 0.005582261535260594
90833336 -0.0006751950161707919 0.00559677584014549
90863098 -0.0006520277457518756 0.005574203191716712
90892860 -0.0006761866085634656 0.005553471886896921
90922622 -0.0006750390417497285 0.005536120128602255
90952384 -0.0005848068511701312 0.005509006424663789
90982146 -0.0006057781726589482 0.0054872230562381125
91011908 -0.0005417060570492145 0.005464592255001396
91041670 -0.0005618469287811155 0.0054460965696442815
91071432 -0.0005400605032073283 0.005423128871251934
91101194 -0.0006490490466306343 0.005406271765264502
91130956 -0.0004908096924027206 0.00541591102207723
91160718 -0.0005649876174296429 0.005446795965164705
91190480 -0.0006026000117165612 0.005480153124160575
91220242 -0.0007653298807449384 0.005513059304159785
91250004 -0.0006730087807337713 0.005541530100742911
91279766 -0.0008383848469672241 0.005572292438198335
91309528 -0.0007230122106403594 0.005605416442984026
91339290 -0.0007873610073931261 0.0056327731428842745
91369052 -0.000854843885374452 0.0056728792062320215
91398814 -0.0009830789573418235 0.0056729924268705345
91428576 -0.0008516515329324601 0.005654064675162716
91458338 -0.0008085989260185378 0.0056287004274392215
91488100 -0.0008488176067215614 0.00560687165960097
91517862 -0.0008435638977944928 0.005583950398706735
91547624 -0.000800992371720447 0.005560953082679287
91577386 -0.0008003408203547409 0.00553777159840453
91607148 -0.0008349626985474487 0.0055126629016223234
91636910 -0.0008317360335510634 0.005490208907630666
91666672 -0.0007906482858580016 0.005469956472982134
91696434 -0.0007589116587401596 0.005488067363653535
91726196 -0.0006509583054540799 0.00551090406385977
91755958 -0.0005784702170089406 0.005528343547014301
91785720 -0.0005432355613569195 0.005544199684471706
91815482 -0.00041615327004432647 0.005558007324685403
91845244 -0.00034039219501341293 0.005573329022791303
91875006 -0.00030418685272922574 0.005582213953136853
91904768 -0.0003376299256329347 0.005601140842670238
91934530 -0.00015204281914805263 0.0056051696675643225
91964292 -0.00014554397650390948 0.005624671043311611
91994054 -9.518756469806848e-05 0.0056436253835630956
92023816 -0.00024266936266335761 0.005679762279982271
92053578 -0.00015473889864307694 0.005702332369272818
92083340 -0.00015785389555197566 0.005725952422112079
92113102 -0.00012942079001770332 0.0057500345567926435
92142864 -0.00016671315664432308 0.005776539541383977
92172626 -0.0001382798900898775 0.005803581452106796
92202388 -0.00028178466382091966 0.0058324442896474085
92232150 -0.0001868635673517451 0.005829716904887823
92261912 -0.00030871022280292175 0.005778892912217706
92291674 -0.00019194777951312948 0.0057237813075957135
92321436 -0.0002420303411124768 0.005673820485172107
92351198 -0.00022630949319013926 0.005624018351052027
92380960 -0.0002738152440895903 0.005574863735948611
92410722 -0.0002888827034962356 0.005525788497912221
92440484 -0.00027190799900764917 0.00547514093556348
92470246 -0.00028661458346612267 0.005427493528523298
92500008 -0.0003284054175183326 0.005375247223794821
92529770 -0.00033808346361134374 0.005401867540522349
92559532 -0.0003168933607810972 0.0054247355794532
92589294 -0.00036969420675757867 0.0054452770831251406
92619056 -0.0003334393155372474 0.005469463073434224
92648818 -0.00034520821230513474 0.00549398234455674
92678580 -0.0003831530588434453 0.005513764099874631
92708342 -0.0003964768408700782 0.005539777181415587
92738104 -0.0003747549547986244 0.0055607528179081895
92767866 -0.00041398935093738264 0.005581125495509578
92797628 -0.00036953445824553893 0.005601878138702091
92827390 -0.0003685674015869532 0.005614318318652542
92857152 -0.00033987505916157755 0.0056310919573096755
92886914 -0.0003932760211190194 0.0056429006319205595
92916676 -0.0002574940421074717 0.005662167326699307
92946438 -0.00025147214053193004 0.005674852436629722
92976200 -0.000224315663690814 0.005689558960173573
93005962 -0.0002725172297653249 0.0057021343633899425
93035724 -0.000179656880307601 0.005718033248254653
93065486 -0.00022765514478149002 0.005731356740173276
93095248 -9.2118377702595e-06 0.0057280958097910475
93125010 4.719801473715209e-05 0.005725251449608329
93154772 0.0001861912424306265 0.005709587896568188
93184534 8.725047805040806e-05 0.0057323103585258635
93214296 0.0002910573417435556 0.0057053341092536
93244058 0.0003018679820639678 0.005702150718563675
93273820 0.00045596078944327284 0.005686592954802267
93303582 0.0005357034291789752 0.005670692695404173
93333344 0.0006427487758226863 0.005655552153464883
93363106 0.0005837352844741997 0.005668391375737613
93392868 0.0004574647665182617 0.005703732278535137
93422630 0.00044628906431401293 0.005687090647287894
93452392 0.0004091264075924186 0.005690398949797438
93482154 0.00032678960238190647 0.005699663775158848
93511916 0.0002912273560614376 0.005702670965885966
93541678 0.00023247457543430593 0.005703474094873842
93571440 0.00015020108672822677 0.005702489575009638
93601202 0.00011329655538555636 0.005702990863787081
93630964 0.0001334420768403348 0.005702678859093791
93660726 0.00016900485812828333 0.005701133981216273
93690488 0.0002497808117067432 0.005703456636985694
93720250 0.00028694567464070597 0.005701552936004888
93750012 0.00034508927927928386 0.005701050926446106
93779774 0.00042912171276452945 0.005695975903199635
93809536 0.000408885667866872 0.005692258384867249
93839298 0.0005235267770921349 0.005689536373174285
93869060 0.000586237477678332 0.005682950085314964
93898822 0.0006479356939065385 0.005675653891180079
93928584 0.0006464744475441617 0.0056585006303099365
93958346 0.0006810886189329538 0.005643221369590681
93988108 0.0006304423643636911 0.005629810061652472
94017870 0.0007015696618770563 0.005611502446676678
94047632 0.0006670145897475826 0.00559778615213389
94077394 0.0007523765976385407 0.00557808361292864
94107156 0.0007537103698668107 0.005561572947999966
94136918 0.0007874625587504245 0.00554620122855711
94166680 0.0007906179092834601 0.005529324920588401
94196442 0.0007890220796579561 0.005806666432661554
94226204 0.0007355645274317142 0.006117251844506805
94255966 0.0007861222495877795 0.006453140881439497
94285728 0.0007398613010327046 0.00683605393851194
94315490 0.000697517225954895 0.007263172169212129
94345252 0.0006479263848360452 0.007742318012387533
94375014 0.0005291853093291252 0.008287642729545852
94404776 0.0004038448643361598 0.008905749264170646
94434538 0.00020427935045727667 0.00961994293323734
94464300 0.0002390719016834327 0.009339888678385371
94494062 0.0004370514976394953 0.008629481669125952
94523824 0.0005698266145741918 0.00801208268551897
94553586 0.0006508933634869721 0.007465933459149393
94583348 0.0007418846882293731 0.006991396060604779
94613110 0.0007862833087659159 0.006563397641350672
94642872 0.0008271817992090853 0.006184008366854103
94672634 0.00087373368284599 0.005841113355123548
94702396 0.0009008798658539706 0.005532440601979928
94732158 0.000909228712483159 0.005324836108034573
94761920 0.0009342738078914881 0.005273425244643871
94791682 0.0009271644600381539 0.005225046800885599
94821444 0.0009820505334018998 0.005171862355306673
94851206 0.0009767588365412962 0.005127353253139632
94880968 0.0010346772746541977 0.005072773823903858
94910730 0.001049642123137741 0.005025255969264114
94940492 0.0010795856654441328 0.004974690243117993
94970254 0.0010692825514136868 0.004926893587424617
95000016 0.0011160275511052956 0.004879498350431143
95029778 0.0011023424128672457 0.004897723584592225
95059540 0.0011319625665605637 0.004915370379015789
95089302 0.0011421773870497244 0.004932746614085782
95119064 0.001160196609833407 0.004949087835025422
95148826 0.001141179144271773 0.004967241915939929
95178588 0.001172176992931243 0.004982794204166212
95208350 0.001178601148873868 0.005000916465702709
95238112 0.0011948611917272213 0.005019134200676341
95267874 0.0011991602726641546 0.0050353856726591565
95297636 0.001224014498655285 0.005035276929795057
95327398 0.0012507950827959366 0.0050214249633929895
95357160 0.0012679912213679316 0.0050130368679346315
95386922 0.001298504195915529 0.004999821160776864
95416684 0.0013282352020431095 0.004988742347247122
95446446 0.0013488200898398505 0.004972531229907562
95476208 0.0013805781070649018 0.004961307649039142
95505970 0.0014032579408754064 0.00494877169612298
95535732 0.0014327674310732304 0.004931264826262796
95565494 0.0014738551146068375 0.0049116231770889775
95595256 0.001527491279584943 0.004889166443507991
95625018 0.0015785219307383133 0.004863346107079798
95654780 0.0016327841920157793 0.004838320556908542
95684542 0.0016944519242691654 0.004809636506254453
95714304 0.0017463658240151852 0.004781394172269665
95744066 0.0018007158590982865 0.004750631258450738
95773828 0.0018509330942055506 0.0047210048868084
95803590 0.001915129402145746 0.004686070458209729
95833352 0.001967035569117385 0.0046524971739197295
95863114 0.0019918215270862214 0.00458419925336301
95892876 0.0020125687171857723 0.0045185711012149035
95922638 0.002040757458660414 0.004449907003329774
95952400 0.002061595590837703 0.004380961661663867
95982162 0.002083860107013442 0.004313371090282006
96011924 0.0016966797118517201 0.004271733488882386
96041686 0.0021244206567541018 0.00414314083090432
96071448 0.002115474431342276 0.004081198805587018
96101210 0.0021677573467161248 0.004003216883908132
96130972 0.00181794426736706 0.004029567713613403
96160734 0.0022264467573853536 0.003933201821999907
96190496 0.002284863855830321 0.003888677925934822
96220258 0.0023014243962605667 0.0038688800752296306
96250020 0.0023241806537161423 0.003840739805968748
96279782 0.002341124089906594 0.0038153362715718803
96309544 0.002371807382653774 0.003777372340988232
96339306 0.002388482853171623 0.003749493436406992
96369068 0.002435878205409516 0.003706091747046947
96398830 0.002478281578178664 0.003657605598508767
96428592 0.0025240068348138267 0.0036126584504112785
96458354 0.0025749731715637905 0.0035600495746298307
96488116 0.0029826629449210347 0.003354668801297702
96517878 0.0026759214348845354 0.003438599860540237
96547640 0.0027287488993596692 0.0033787459982579735
96577402 0.002765617745393351 0.0033182874217825434
96607164 0.0028214811364850423 0.00324841518236384
96636926 0.003210079233677191 0.0029974123547735687
96666688 0.0029151471204764386 0.0031089318806049814
96696450 0.002899807635805075 0.0030187350844368835
96726212 0.0028742391381091203 0.0029394518761886204
96755974 0.002575329395379536 0.0029815634304532364
96785736 0.0028676084438128517 0.0027432534249642176
96815498 0.0025708385004070376 0.0028041776332558372
96845260 0.002845926067794744 0.002553058040162293
96875022 0.0028324292815667122 0.002456513107648619
96904784 0.0028157851030640854 0.002367500744644441
96934546 0.0028187285390598427 0.002256344632815844
96964308 0.002802968769785695 0.0021831085917541457
96994070 0.0027979134323601854 0.0021174094590727588
97023832 0.0030245331089283575 0.0018026696338644787
97053594 0.0027864257365116285 0.00196298595342769
97083356 0.0027781612952927264 0.0018939495498298368
97113118 0.002570818219916073 0.001998997759216543
97142880 0.0027699464849226304 0.001720364710493189
97172642 0.002928676649440028 0.0013726340555781356
97202404 0.0027369669588362443 0.00154879205149217
97232166 0.002736146441214575 0.0014433895708798909
97261928 0.0027347416403244377 0.0013332762866359882
97291690 0.0027434005105334857 0.001203071659212327
97321452 0.002734562966882956 0.0010802839950534086
97351214 0.002714669824087152 0.000963342549718036
97380976 0.002698549004443838 0.0008397424450459428
97410738 0.002681225857483324 0.0006989627237578321
97440500 0.0026529172567992284 0.0005722644072183449
97470262 0.0026101371721658317 0.00014873906361943153
97500024 0.002580177587574911 0.00029900398125864156
97529786 0.0025448027356149714 0.00019427622181727137
97559548 0.0024038325076453336 -0.00023555346774259734
97589310 0.0024224151111788437 -8.6076461329696e-05
97619072 0.0023618167779965405 -0.00024282897813356915
97648834 0.0023096866544585646 -0.0003428844350970236
97678596 0.002236832143454199 -0.00048823144254991647
97708358 0.001931638471957406 -0.0008509837348999097
97738120 0.0020641788809571786 -0.000753375930529505
97767882 0.001978402009563442 -0.0008779567246283644
97797644 0.0020828616564872557 -0.0008291733644945197
97827406 0.001730075055221208 -0.0011372655816118099
97857168 0.0015675725290441845 -0.0012790417766894847
97886930 0.0014053277559065633 -0.0013878918832551414
97916692 0.001578525276929077 -0.0013838161939738387
97946454 0.0010678232933306376 -0.0015725372968833284
97976216 0.0012557504177353462 -0.0016336922292201565
98005978 0.0002449270082462656 -0.0016667382621426692
98035740 0.000482731716113684 -0.001788422691991416
98065502 0.00032565247416818405 -0.0018465312686098774
98095264 0.00020884683151404018 -0.0019320315721749184
98125026 5.0306545120338594e-05 -0.0019978755328997435
98154788 -0.0005608062291690851 -0.0018137696789967347
98184550 -0.00021837376361334858 -0.0021498045903217793
98214312 -0.00036299496144096607 -0.002208516502368765
98244074 -0.0009946712064830944 -0.0019256367076014161
98273836 -0.0006071288335388114 -0.0023494450433244694
98303598 -0.0007663990308499439 -0.0024114427685283453
98333360 -0.0009089774644194927 -0.0024635055641482216
98363122 -0.0010385887740026237 -0.0024936439365825453
98392884 -0.00122765206625652 -0.0024638148808105715
98422646 -0.0013709029532237168 -0.0024983833059514654
98452408 -0.0015248892958602835 -0.0024820065291490862
98482170 -0.001703243668556413 -0.002452382952620105
98511932 -0.0018429244704389986 -0.0024606734952136587
98541694 -0.0024113573785496537 -0.0017406840935545317
98571456 -0.0021526078123265185 -0.0023675822485285
98601218 -0.001835243113806146 -0.0029410652465391798
98630980 -0.002466488818443839 -0.002279331791139641
98660742 -0.002639324961423094 -0.002209223387998554
98690504 -0.003065828799359495 -0.0013458377680786477
98720266 -0.002609036379741026 -0.0027794349194052138
98750028 -0.003114987489948275 -0.0019530773231976096
98779790 -0.0032572897468766903 -0.0018423789146552107
98809552 -0.0033989419542525246 -0.0018065792917644043
98839314 -0.00354708622753483 -0.0016399296456057685
98869076 -0.0036646600002115696 -0.0016059885452028486
98898838 -0.003632656574159319 -0.0022945177698355432
98928600 -0.0039110918640999125 -0.0013493252152209309
98958362 -0.003912439574918377 -0.0021968228937915084
98988124 -0.004142589044934506 -0.0012812958468220272
99017886 -0.004152332666713392 -0.0009035347409966188
99047648 -0.004237192779447733 -0.0009102365780073615
99077410 -0.004350329314303139 -0.0008437017788570163
99107172 -0.004417431770934582 -0.0006992272625803738
99136934 -0.004541003108880438 -0.0006902294679411678
99166696 -0.004600965919172358 -0.0006283091740844774
99196458 -0.004640164487383932 -0.0004928070876195216
99226220 -0.0046944239588079 -0.00042270454980559844
99255982 -0.00472797014734039 -0.0003670235707477458
99285744 -0.0047654358172167415 -0.00024183504991793231
99315506 -0.004852714611886362 -0.0003074988316328736
99345268 -0.004907933718681645 -0.0002649265101594213
99375030 -0.004923257157732186 -0.0001132580160359946
99404792 -0.0049828489713687075 -0.0001333968550432379
99434554 -0.005018545398481954 -6.335703793530424e-05
99464316 -0.004955113178442846 0.00021959225702084125
99494078 -0.005074121147974239 0.00026252296545853685
99523840 -0.005069893315347955 0.0005105385840306843
99553602 -0.0050745797526293894 0.0006898258614154034
99583364 -0.005469494529385773 8.499827495157484e-05
99613126 -0.0046277690211791594 0.0017135348456276702
99642888 -0.0050592908349407556 0.0012097164353792624
99672650 -0.0050348511046621304 0.0013756743446100646
99702412 -0.005453120440513273 0.000844394166797155
99732174 -0.005009322311097548 0.0016418330409985263
99761936 -0.00491128762804129 0.001814760824226672
99791698 -0.005144236143540552 0.0015607910948613613
99821460 -0.005184354098210942 0.0015931337706251657
99851222 -0.0052356820102968105 0.0015612386914682888
99880984 -0.005730984791109674 0.0009346657027703693
99910746 -0.005271590825857959 0.0016055376475644931
99940508 -0.005820942150785143 0.0009036192489974975
99970270 -0.005344011349098249 0.001592882392219251
100000032 -0.005389328343910731 0.0015832834992945803
100029794 -0.005392953777785057 0.0016517483320738918
100059556 -0.005390807307660818 0.0017248137334610909
100089318 -0.005397530700687416 0.0017955129224016477
100119080 -0.005406180645080332 0.0018640884458541187
100148842 -0.005408310971003539 0.0019315827139911646
100178604 -0.005406967058271787 0.001997393918595102
100208366 -0.005413236165862796 0.0020641758034360465
100238128 -0.00540286171666897 0.0021316545756834182
100267890 -0.005396677759883412 0.002200938206166119
100297652 -0.005401938432725378 0.002253475199724203
100327414 -0.005404633240052306 0.00229810649617459
100357176 -0.005407092105777716 0.002346551000277153
100386938 -0.0054091090791590244 0.0023997005983035107
100416700 -0.005416065794025088 0.0024587370477277453
100446462 -0.005427922742042945 0.002500556377731872
100476224 -0.005425070900848676 0.0025437951257449107
100505986 -0.005421870110878905 0.002597772681669551
100535748 -0.005422946657454218 0.0026447580927160368
100565510 -0.0054461994013045 0.0026831047775685494
100595272 -0.005489096978078529 0.0027409598618318444
100625034 -0.005553467921965276 0.0028010969586209594
100654796 -0.005599387510260215 0.0028513403216951297
100684558 -0.0056605640799196185 0.002906177791056327
100714320 -0.00571373145027422 0.00296151330377345
100744082 -0.0057626228720062634 0.003006543052794302
100773844 -0.005825331534779853 0.0030701243904785527
100803606 -0.005874672896279271 0.003115241021748191
100833368 -0.005941342591496409 0.0031702240876281453
100863130 -0.005882838628906598 0.003222579193582468
100892892 -0.005825582079336547 0.003266888870611909
100922654 -0.0057611699409120705 0.003308556591133163
100952416 -0.005712082291573773 0.003349833178258338
100982178 -0.005623443529907916 0.0034099430754102886
101011940 -0.005602523948942254 0.003429647539112266
101041702 -0.005552084168321124 0.0034719264392414017
101071464 -0.00549245240328956 0.0035177124984934202
101101226 -0.0054328048825448005 0.0035486849438596223
101130988 -0.005410746367087172 0.003574193315796134
101160750 -0.0054084174330643634 0.0035930160915794494
101190512 -0.005399696188985806 0.003613328815497897
101220274 -0.005393822255730462 0.0036332777546597187
101250036 -0.0053812607621647746 0.0036527169862426104
101279798 -0.0053774061942546796 0.003673090695225418
101309560 -0.0053766998153327635 0.0036907982228197504
101339322 -0.005359429596910902 0.0037170702123447445
101369084 -0.005353357869979521 0.003736504632331673
101398846 -0.00533714607467015 0.0037768751981267423
101428608 -0.00529539180953972 0.0038706878603438893
101458370 -0.005245404865947982 0.003966944254574975
101488132 -0.005191467632446171 0.0040585078289714265
101517894 -0.005144374234250966 0.004150372595380717
101547656 -0.005095087451405003 0.004245886695273659
101577418 -0.005033967417907941 0.004332417684628683
101607180 -0.004977454591450846 0.004424369255867134
101636942 -0.004913334281592294 0.0045084413846431266
101666704 -0.00485482718568679 0.0045862535859974175
101696466 -0.004924692111556662 0.0045418393877717025
101726228 -0.004981577153937221 0.00448206444185399
101755990 -0.005048561123605543 0.004431229777320341
101785752 -0.00510853122911848 0.004370789168968406
101815514 -0.005163338057662479 0.004305238927116235
101845276 -0.005225351926801829 0.004247219091295077
101875038 -0.005277119125047853 0.00417603436943551
101904800 -0.0053330831283305395 0.004107214732521422
101934562 -0.005376720071453042 0.004039558064633437
101964324 -0.005341304937954591 0.00406761028924924
101994086 -0.005266488869778547 0.004151155840589247
102023848 -0.005170033750176743 0.0042290189601439515
102053610 -0.005123733324381548 0.004317955645057684
102083372 -0.0050084504678374634 0.004372751100515888
102113134 -0.004930295478174634 0.004443079784579825
102142896 -0.004878757218329504 0.004505451104664203
102172658 -0.004757623562501877 0.00457702857131116
102202420 -0.004706464439690411 0.004631410913429325
102232182 -0.004637057924547668 0.004684040123130686
102261944 -0.004752401461886353 0.004704451550890868
102291706 -0.004834455851634758 0.004729269420999001
102321468 -0.0049180569802274865 0.004744591246276618
102351230 -0.005003141116645337 0.004759391558530263
102380992 -0.00509198573180404 0.004771675062694267
102410754 -0.005179539239591923 0.004776663625307365
102440516 -0.005270836551145495 0.00479150451250205
102470278 -0.0053724483733607 0.004795532523574955
102500040 -0.005429812462102975 0.004805534141706117
102529802 -0.0054021962306975615 0.004833035288677086
102559564 -0.005347418944529515 0.004874513752186827
102589326 -0.005285958001080328 0.004908524416619822
102619088 -0.005227897640933584 0.004948236436006854
102648850 -0.005139985029629712 0.0049875671731126475
102678612 -0.005114641366837759 0.005016878006153009
102708374 -0.005054112467639203 0.005049372748221097
102738136 -0.0050018197620695076 0.005080950037567057
102767898 -0.0049401179667919294 0.005110446271213354
102797660 -0.004907308211837159 0.005113698794620372
102827422 -0.004881706719001901 0.0050947399312153505
102857184 -0.004850247843973436 0.005079474697529956
102886946 -0.004700183583356109 0.004975200540887631
102916708 -0.004808288629039794 0.005042228129685071
102946470 -0.004785845183147029 0.005029561521468002
102976232 -0.004758592836405396 0.0050082880157305614
103005994 -0.004739155781493481 0.004992380329112512
103035756 -0.004719402724680245 0.0049730272897385635
103065518 -0.004703695568095178 0.004979133112569888
103095280 -0.004704007429243272 0.005009917521492981
103125042 -0.004701977837828847 0.005039664448399255
103154804 -0.004705686045834771 0.0050722074791392895
103184566 -0.0047039800464386316 0.005100857734210932
103214328 -0.004709079708205293 0.005134450013116322
103244090 -0.004713544071729761 0.005165682729192226
103273852 -0.004709428780790771 0.005199331362337854
103303614 -0.004716085294405939 0.005233854506953715
103333376 -0.004714747923784846 0.005263956351685966
103363138 -0.004619880401470455 0.005284768775886112
103392900 -0.004533699218494548 0.005295697986473938
103422662 -0.004440583339796237 0.0053098672318337625
103452424 -0.004352874179561384 0.005323518363376557
103482186 -0.00426644229006359 0.005327371585902104
103511948 -0.004180056277387221 0.005334857174539556
103541710 -0.004090935869666046 0.005338890936287451
103571472 -0.0040090440850524016 0.005347484242581391
103601234 -0.00392455453838887 0.005350744034635775
103630996 -0.003926569548982912 0.005346910140328749
103660758 -0.003963174374020823 0.005338917591922647
103690520 -0.004000093121516846 0.005330473442843366
103720282 -0.004043973135572382 0.005323410635996175
103750044 -0.0040850174239163125 0.005315244778636548
103779806 -0.004127742208226119 0.005306138366583288
103809568 -0.004162097327038877 0.005295127357575496
103839330 -0.004204848978136865 0.00528233296096401
103869092 -0.00424478108128585 0.005267067443292262
103898854 -0.0042835797696791625 0.00526878088267754
103928616 -0.004322919578293895 0.005290014296592863
103958378 -0.00435888372859393 0.005310016549637393
103988140 -0.004399244218145074 0.005331176481716237
104017902 -0.004445907820780999 0.005352255894843799
104047664 -0.004481486524213856 0.005374108215239073
104077426 -0.0045199077542558246 0.005398285130016899
104107188 -0.00457035948225592 0.005414142221950896
104136950 -0.004609578017558544 0.005436148530056824
104166712 -0.004654174737007139 0.005458600771909189
104196474 -0.004640523454955741 0.005504921744116719
104226236 -0.004639676688463358 0.005554186757807028
104255998 -0.004627557884053066 0.0056002787556334475
104285760 -0.0046129249544582624 0.005655230131728487
104315522 -0.004603339311519738 0.005702022967822064
104345284 -0.004599045651883243 0.005754019378638082
104375046 -0.004575945956097123 0.005806734059601453
104404808 -0.004566038192796068 0.005853329286023491
104434570 -0.004557097569061693 0.005909631589591298
104464332 -0.004542022037279161 0.005888627771223606
104494094 -0.004525281401851424 0.00583787564873636
104523856 -0.004507313553815027 0.005788126989510353
104553618 -0.0044887169073412735 0.005732765616058342
104583380 -0.004469017457273382 0.00568881817704807
104613142 -0.004453099451772458 0.0056373802579507085
104642904 -0.004436684029164172 0.005591114199584916
104672666 -0.004413968365590725 0.005547680579423188
104702428 -0.004400096593078465 0.005494968768958349
104732190 -0.0043845445727103685 0.005489009028449211
104761952 -0.004366269493940908 0.005562848490569212
104791714 -0.004357572112110546 0.005641898657970333
104821476 -0.004341158260288391 0.00572005795672069
104851238 -0.004326048180460714 0.005796156800536348
104881000 -0.004313248509949372 0.0058780723422422665
104910762 -0.004289444194876251 0.0059614302859626435
104940524 -0.004270810911067086 0.0060373720250540275
104970286 -0.0042543029284330845 0.0061188270010487855
105000048 -0.0042286466134529455 0.0062046195091608955
