# HZ S RI R 50
90000000 -0.0009731641357851515 0.005522141583175124
90029762 -0.0009480950634010737 0.005557290379736662
90059524 -0.001196273464853625 0.005578922172853868
90089286 -0.0010611822013153454 0.005620158228849075
90119048 -0.0012556899654630257 0.005645154347128009
90148810 -0.0011238616012922617 0.005685521213572679
90178572 -0.0012267864891300077 0.005724519858395355
90208334 -0.001131446879780409 0.005756631928511935
90238096 -0.0013879759739907891 0.005779886702344942
90267858 -0.0012567226628708195 0.0058190838081971135
90297620 -0.0012488759583985185 0.005801673882590997
90327382 -0.0011693305118634333 0.00576082357410582
90357144 -0.0011944178613374787 0.0057146854457525076
90386906 -0.0011153109825438087 0.005670844093956739
90416668 -0.001298601780491395 0.005623996017991963
90446430 -0.001116769583508084 0.0055898194758840095
90476192 -0.001055222330673323 0.005552103237404498
90505954 -0.0010311610116692088 0.005510992502338088
90535716 -0.0010559719393413516 0.005468263955816693
90565478 -0.000980179943984836 0.00544919327747719
90595240 -0.0009946034930661538 0.00546574620679508
90625002 -0.000961431592225537 0.0054807066808752495
90654764 -0.0008780039998412306 0.005498880868783502
90684526 -0.0008442621288063561 0.005515454627215779
90714288 -0.0008355105115264759 0.005525849635936705
90744050 -0.0008047637084111749 0.005543646037149559
90773812 -0.0007204425869610997 0.00555733534883466
90803574 -0.0007313706175379735 0.005573529274447981
90833336 -0.0006471390578319147 0.005586120658464123
90863098 -0.0006244676887515702 0.0055645241607342735
90892860 -0.0006465137892075533 0.0055456611341752815
90922622 -0.0006121209338209736 0.00552472035843309
90952384 -0.0005545735133662467 0.0054983907574726095
90982146 -0.0005789587885405831 0.005476525514980146
91011908 -0.0005114736929150803 0.00545413389941671
91041670 -0.0005334763609958101 0.00543416010656563
91071432 -0.0005121695378377828 0.005414273364841933
91101194 -0.0006191349126965322 0.005394851850961386
91130956 -0.00046252365424902275 0.005404343841999856
91160718 -0.0005366283501719737 0.005435387306079669
91190480 -0.0005894675572265575 0.0054683514050278
91220242 -0.0007351015766532562 0.005499586268963659
91250004 -0.000641293057313158 0.005531974963806635
91279766 -0.0008064106856096563 0.005559270956557991
91309528 -0.000674919182965096 0.005592500477074173
91339290 -0.0007526111694982621 0.00562156546767542
91369052 -0.0007540792289533377 0.005655702473044261
91398814 -0.0009480404138124001 0.005658978121016422
91428576 -0.0008195973298630298 0.0056405306214539225
91458338 -0.0007753371564407414 0.005618847795402143
91488100 -0.0008125916299176036 0.005592229238471654
91517862 -0.000809459512479963 0.005569055623752777
91547624 -0.0007665235069224853 0.005547412191206246
91577386 -0.0007654329375156869 0.0055254515771193165
91607148 -0.0007994151618564919 0.005499826335490727
91636910 -0.0007979721684132649 0.005478207426075014
91666672 -0.000753670801099758 0.005456518161748961
91696434 -0.0007219895015092428 0.005474562283280446
91726196 -0.0006130914514542165 0.005495338889175258
91755958 -0.0005392133708570002 0.005512347163505237
91785720 -0.0005050599312305142 0.005529138109515709
91815482 -0.0003951696811267987 0.005543367545470365
91845244 -0.00031964126177503547 0.005558096911435877
91875006 -0.0002808517754465288 0.005570781290393948
91904768 -0.00031423666092764965 0.0055824050409644535
91934530 -0.0001294402862894418 0.005586918857696894
91964292 -0.00010633563104313214 0.005606650206700297
91994054 -7.290919832538403e-05 0.005629614729593832
92023816 -0.00023497182939282574 0.005659780350256711
92053578 -0.00011335228969231276 0.005680250630932499
92083340 -0.00011868171475593522 0.005702622505638094
92113102 -8.631243633987651e-05 0.0057272291532304625
92142864 -0.00012498781433625567 0.005754957414747701
92172626 -9.30102583178025e-05 0.005776300185095345
92202388 -0.00023469771325674 0.005806064545663641
92232150 -0.0001413078725748012 0.0058069853623122225
92261912 -0.0002447722540113361 0.00575366328264921
92291674 -0.00014432213486232915 0.005699408982595333
92321436 -0.00019455902217739275 0.005648868532917117
92351198 -0.00018079437632089056 0.005600194559818084
92380960 -0.0002280937769692417 0.005549109186128782
92410722 -0.0002412805943089901 0.005500319841727244
92440484 -0.00022536475651569954 0.0054512242065306304
92470246 -0.00023852800508328227 0.005402479927802534
92500008 -0.0002792323777183561 0.00535007175971844
92529770 -0.0002881901597643791 0.00537598925558222
92559532 -0.00026732169228392154 0.005398287377495882
92589294 -0.0003040493766196729 0.0054207675671205345
92619056 -0.00028371050960573945 0.005442800296304195
92648818 -0.00029199053833750365 0.005468341377355542
92678580 -0.00032925243702046386 0.0054878425438841085
92708342 -0.00030924288192196194 0.005512284919501485
92738104 -0.000317910443921215 0.005532797233579327
92767866 -0.0003553060147073578 0.005556169351716557
92797628 -0.0003972378321438102 0.005580518840754547
92827390 -0.00031045155039709617 0.005585952076469034
92857152 -0.0002807236527286361 0.005600648293645281
92886914 -0.00033526177417935143 0.00561235172963071
92916676 -0.00019529551485238773 0.005629737527343099
92946438 -0.00019266668350309955 0.0056409698832272865
92976200 -0.00021203450955880568 0.005656419506379226
93005962 -0.0002083611304811487 0.005665743391446966
93035724 -9.77715009623051e-05 0.005681219540430879
93065486 -0.00011017388961375056 0.005684180150998594
93095248 5.8102362867427885e-05 0.005688192325217276
93125010 0.00011389672624320511 0.005684121940676783
93154772 0.0001615097060019966 0.005711562700023688
93184534 0.0002334320861515763 0.005663806017363868
93214296 0.0003900100296683896 0.005652362502133025
93244058 0.0004121784459211512 0.0056391011667327315
93273820 0.0005191273131997752 0.005638126282734305
93303582 0.0006341777545379823 0.0056107266004773075
93333344 0.0007068992521345192 0.0056006900566668285
93363106 0.0006498901375136811 0.005611559071540892
93392868 0.0005746053789995642 0.00562491246648295
93422630 0.000517659742672812 0.005633737931185023
93452392 0.0004806825188566835 0.005639305707207824
93482154 0.0004006657822961966 0.0056453768886074365
93511916 0.00041412278003381884 0.005635203814624042
93541678 0.0003086163574656361 0.005649813670787869
93571440 0.0002468085377128143 0.005645776255966203
93601202 0.0001931156019671458 0.0056488305674380025
93630964 0.00022881232644216126 0.005644244027725213
93660726 0.0002513193401487705 0.0056451049185191355
93690488 0.0003469731809829671 0.005636695941699717
93720250 0.0004113671708501337 0.005611276089005712
93750012 0.0004311733352973541 0.005635783933153143
93779774 0.0005095703827107074 0.0056327790588783
93809536 0.0004935028372093819 0.005625954157092318
93839298 0.0006094452987285638 0.005617945576815112
93869060 0.0006706408966841341 0.005610328128954625
93898822 0.0007362885457502615 0.0055992258373146805
93928584 0.0007343319053033356 0.005583335031844021
93958346 0.0007719820188842975 0.005564117666755721
93988108 0.0007220587111181057 0.0055489698423704485
94017870 0.0007916555326387175 0.005531218127906818
94047632 0.0007585376619370684 0.005512305062803724
94077394 0.000843780376826095 0.005493756762756168
94107156 0.0008471330789452776 0.005479249461505343
94136918 0.0008806672038544505 0.005459837949907874
94166680 0.0008833625774989383 0.00543808744384654
94196442 0.0008917052641109691 0.005712156718524381
94226204 0.0008419979648403539 0.0060113556103532076
94255966 0.0009043712747829917 0.006342822279355112
94285728 0.0008673160635353975 0.006716992710626387
94315490 0.0008333499918062382 0.007137794406729267
94345252 0.0007982346475139446 0.007608455330405945
94375014 0.0006959370596397785 0.008145002324391812
94404776 0.0005854565680368738 0.00875059385832356
94434538 0.0004021492668154088 0.009452596857853917
94464300 0.0004444621213502529 0.009171954395914195
94494062 0.0006263118517576943 0.008469394668036338
94523824 0.00073848663010722 0.00785081052058633
94553586 0.000810124746001835 0.007313521663752163
94583348 0.0008920990649322919 0.0068383921198949685
94613110 0.000923291592830177 0.006415974264698908
94642872 0.0009615299841751486 0.006038921351383234
94672634 0.0010012300043144397 0.005698865509866302
94702396 0.0010193403822650994 0.005394664933188335
94732158 0.0010278440268977084 0.005186301078381407
94761920 0.0010497710920032738 0.005131178546404988
94791682 0.0010431214292926795 0.005079227449545289
94821444 0.0010959341049218592 0.005028647552301897
94851206 0.0010901324566963862 0.004975097793923477
94880968 0.001149449845596901 0.00491936023837057
94910730 0.001161484326220771 0.004867875416501742
94940492 0.0011930091168589239 0.004816810004203094
94970254 0.0011802674215891048 0.004765996061918512
95000016 0.0012283545024342247 0.004710270713646698
95029778 0.0012156783214001402 0.0047274593751281185
95059540 0.0012454897756514428 0.004739834471484211
95089302 0.001256691066378056 0.004749690132147846
95119064 0.0012767086909986427 0.0047632134425252765
95148826 0.001259015428260433 0.004776116494359814
95178588 0.0012927903935428988 0.004785081115267981
95208350 0.0013015990231349485 0.00479909414185446
95238112 0.0013190397858402327 0.00480847604856709
95267874 0.0013236268556447964 0.004819162986372776
95297636 0.0013523973336541375 0.00481108921808817
95327398 0.0013776070352633908 0.004791816086663955
95357160 0.0013976558696034023 0.00477578148373489
95386922 0.0014284463168207826 0.004756214909850839
95416684 0.0014535816687908146 0.004738830060590802
95446446 0.001477644472963883 0.004719103945030667
95476208 0.0015074902976293123 0.004698443339062334
95505970 0.0015286961352087953 0.004676840272430227
95535732 0.0015568040279963667 0.004652741025480843
95565494 0.0015944526036756853 0.00462760456816778
95595256 0.0016499095677364746 0.004596065058816889
95625018 0.0016984744978299827 0.004560999221681955
95654780 0.001751130616858368 0.004522108057198869
95684542 0.0018058326043386798 0.004486989734428584
95714304 0.0018524753948599487 0.0044487234172106175
95744066 0.0019050160497371873 0.004407939565450001
95773828 0.0019480034020373715 0.004369318708445937
95803590 0.0020085308371331615 0.004324833566655797
95833352 0.002052451986623657 0.0042814786769868884
95863114 0.0020797851748613383 0.0042036591433309714
95892876 0.00209615202851145 0.0041294373683003725
95922638 0.002110323365516684 0.004053057459578202
95952400 0.002129116955404282 0.0039781641613582264
95982162 0.002145012349642276 0.0039008745869265576
96011924 0.0018033629242453384 0.0038836982041173186
96041686 0.002177282144497504 0.003743549064404449
96071448 0.002190709356965317 0.003664654512436683
96101210 0.00206196803637947 0.003675603105388184
96130972 0.0018859771036149314 0.003610965402871569
96160734 0.002248530189632146 0.0034983239586443534
96190496 0.002244633110354848 0.0034743866879508585
96220258 0.00228042583339299 0.003421339580224078
96250020 0.002293232903357284 0.0033854057399760004
96279782 0.00230127490423625 0.003347503843363428
96309544 0.00235094567998364 0.003280438430201733
96339306 0.0023918392118216234 0.003224366270421625
96369068 0.0024116169593298804 0.0031725402280860394
96398830 0.0024619724781238697 0.0030952361706270463
96428592 0.002477975016369798 0.0030507680043177447
96458354 0.0025413595706480943 0.002954216646554291
96488116 0.0028415906007193416 0.0027516623215992496
96517878 0.002576325364975133 0.002844745808617237
96547640 0.0025988537269204946 0.0027734028504231146
96577402 0.00262432631671609 0.0026947878739872516
96607164 0.002653435297255289 0.0026203987832784867
96636926 0.002952991180202826 0.002344472129176557
96666688 0.0026972783114482357 0.0024552619886747677
96696450 0.0026693874383214105 0.0023579114803804688
96726212 0.002662183160328707 0.002245955797614537
96755974 0.002375135877085892 0.002317978259400253
96785736 0.002582039375830019 0.0020709359340641397
96815498 0.0023343166987623023 0.002132737313766993
96845260 0.0025081085723767825 0.0018798527475536414
96875022 0.0024760355805379672 0.0017815215974709404
96904784 0.00243901261523797 0.0016901048324371578
96934546 0.0024103380876100604 0.0015836894311378707
96964308 0.0023675344757539997 0.0015052185183674104
96994070 0.002348770719999871 0.001431782883396831
97023832 0.002436022226311218 0.0011485553628979687
97053594 0.0022781780917234683 0.0012699334329224605
97083356 0.0022355024460936784 0.0011974476108418898
97113118 0.0020948798147081265 0.0012736823632659667
97142880 0.0021717248109964465 0.0010248067662439043
97172642 0.00217352306804917 0.0007452714470658873
97202404 0.0020871327264324877 0.0008626222577142063
97232166 0.002040370614699724 0.0007628518325583042
97261928 0.0020060417676590445 0.0006686822727702733
97291690 0.0019661150751794317 0.0005553340433223683
97321452 0.0019198240254259746 0.00045410692637753313
97351214 0.0018625925728233735 0.0003590862836487098
97380976 0.0018074700736234715 0.00026065368569386916
97410738 0.0017393634913806415 0.00015615473576216214
97440500 0.0016690357939547964 4.722272039653308e-05
97470262 0.0014888208038663713 -0.00016724186936401127
97500024 0.001532674121366532 -0.0001372783822413733
97529786 0.0014520155365767768 -0.00023183883620404568
97559548 0.0011922872830217013 -0.00040195669103277156
97589310 0.0012714863708531315 -0.0004199823663765953
97619072 0.0011699633811551884 -0.0005018909669810969
97648834 0.0010948315943424413 -0.0005847070372373913
97678596 0.000990150672488935 -0.0006527435803886715
97708358 0.0006460565264679958 -0.0007339082018381907
97738120 0.0007802975809396485 -0.0008107856049085234
97767882 0.0006615478807602751 -0.0008843260586844065
97797644 0.0007723643112577926 -0.0009775847498025303
97827406 0.0003908000365288057 -0.000989032798487808
97857168 0.00024086366350545545 -0.0010246459674376064
97886930 8.91780247737743e-05 -0.0010444246612159192
97916692 0.00021688377234202136 -0.0012112300458021192
97946454 -0.00021861086395398935 -0.001083198642947427
97976216 -9.397382648961576e-05 -0.0012830662034195189
98005978 -0.0007733196977353955 -0.0007951101298803185
98035740 -0.0006584207746975854 -0.0010519541225549598
98065502 -0.000782376723614784 -0.0010604516482823321
98095264 -0.0008883797060449571 -0.0010941592685604386
98125026 -0.0010090691413394176 -0.0011235389117242426
98154788 -0.0013723728943660868 -0.0007618211713427126
98184550 -0.0012310874208151304 -0.0011952848969134918
98214312 -0.0013493181541890356 -0.0012240117526968808
98244074 -0.0016960167439718894 -0.0007947499977548632
98273836 -0.0015581510202916907 -0.0013121705203186468
98303598 -0.0016770243773436319 -0.0013243730136899327
98333360 -0.001784109541347609 -0.001355212060427081
98363122 -0.0018732337764324502 -0.001367537475283056
98392884 -0.001984691953145622 -0.00131507663734402
98422646 -0.00207316884876746 -0.001319655557469896
98452408 -0.0021764421723859287 -0.0013067122341263843
98482170 -0.002288585377727619 -0.0012537477919677459
98511932 -0.0023655059390372893 -0.0012619041911095055
98541694 -0.002587376238638042 -0.000573548425695623
98571456 -0.0025508743848393508 -0.0011770616374130597
98601218 -0.002437165917160276 -0.0017528582120369693
98630980 -0.0027368507003372173 -0.0010905484995945907
98660742 -0.0028386717115140465 -0.0010225598386613807
98690504 -0.0029814157301887223 -0.0002831285420971862
98720266 -0.0029310905251050453 -0.001520722469968132
98750028 -0.003136788660465661 -0.0008191635645064913
98779790 -0.0032084003419468633 -0.0006857423153289754
98809552 -0.003302155401807137 -0.0006968506436539359
98839314 -0.0033676603146255333 -0.0005270543165194467
98869076 -0.003460282605164834 -0.0005313639472888091
98898838 -0.0035358357697716685 -0.001064193182137185
98928600 -0.0036139759909526678 -0.00033911716888764627
98958362 -0.0037321328633815078 -0.0010263291967780603
98988124 -0.0037716597213631312 -0.0003040780685230049
99017886 -0.003842966039522586 -0.0001528149311409635
99047648 -0.0038922911530199908 -0.00016656605683079326
99077410 -0.00396368114605169 -6.83489586908728e-05
99107172 -0.004030650224877362 -1.3444711819102588e-05
99136934 -0.004119274173504585 -2.6551210492379447e-05
99166696 -0.004196091286664994 3.3563732263351996e-05
99196458 -0.004225709836834496 0.0001148233668860763
99226220 -0.004267417278171136 0.00017139991977242514
99255982 -0.004328638021128535 0.00014565881127231352
99285744 -0.0043516730605562765 0.00023099614457925273
99315506 -0.004405211034092323 0.00020735727446782764
99345268 -0.004395618524154464 0.00028755118394720863
99375030 -0.0044974982117753715 0.00029861964439750483
99404792 -0.004487431470593592 0.00038884196467875123
99434554 -0.0045498542036492 0.000359481636606719
99464316 -0.004563496565740196 0.0005379518439422949
99494078 -0.004605827091529394 0.0006146356088404119
99523840 -0.004588039346858582 0.0008284764949441106
99553602 -0.004590403367294392 0.0009616178649414839
99583364 -0.004944929255723127 0.00041689348675525854
99613126 -0.004144686210965827 0.0018903624864652778
99642888 -0.004577513808583886 0.0013886217989342435
99672650 -0.004565572601845201 0.001527640837015199
99702412 -0.004949888018230999 0.0010466819217964368
99732174 -0.004540557308348727 0.0017393021446706256
99761936 -0.004472914146677922 0.0018874001148856208
99791698 -0.004676300348242259 0.0016560246714550021
99821460 -0.004686892711952038 0.0016974098223461439
99851222 -0.004775659515351491 0.001619505916759272
99880984 -0.005219479835804639 0.0010459341619767238
99910746 -0.004816931639527494 0.0016489357422758042
99940508 -0.005308237654312498 0.0009854274407300268
99970270 -0.004908619019776944 0.0016008541053091129
100000032 -0.0049489879978124665 0.001596450001556004
100029794 -0.004953615927671163 0.0016481164399895496
100059556 -0.004979682471912817 0.0017021852947617063
100089318 -0.0049888360527739215 0.0017639692044372816
100119080 -0.004999451300509965 0.0018120441115723192
100148842 -0.005012312869623626 0.0018723105204111702
100178604 -0.005021963123218607 0.0019301002151224367
100208366 -0.00503688069771281 0.001980382050706516
100238128 -0.005037722489970017 0.002038172571430188
100267890 -0.005044853179070179 0.002087431070965786
100297652 -0.005061064352802273 0.0021436665551002785
100327414 -0.005068394280077681 0.002185327879175647
100357176 -0.005087829638973553 0.0022241993897507014
100386938 -0.005100996329966898 0.0022598515279752458
100416700 -0.00510817453910306 0.0023017096911996343
100446462 -0.0051250407027767595 0.0023441125139678095
100476224 -0.005134449186576796 0.002382782611571459
100505986 -0.005150856194361031 0.0024161110233071187
100535748 -0.005161763530853846 0.002463599481519306
100565510 -0.005186656845034224 0.002501121472791547
100595272 -0.005241115329697151 0.002551718397595541
100625034 -0.0053041229041419944 0.0026013605338635693
100654796 -0.005363187994809774 0.002655428060173163
100684558 -0.005419625154143437 0.0026956185039935434
100714320 -0.005478037812412158 0.0027389324473531765
100744082 -0.005544266460244847 0.0027906315041527274
100773844 -0.00560715784425836 0.0028423030522380455
100803606 -0.005671306107033667 0.002888454301630155
100833368 -0.005735630722169933 0.002943287455429592
100863130 -0.00569710791330889 0.0029792291093737175
100892892 -0.005659083005905327 0.0030176716719242957
100922654 -0.005617207131746208 0.003067902614119953
100952416 -0.0055619412245475975 0.0031171808797175746
100982178 -0.005520724584732782 0.0031528459199080807
101011940 -0.005475699700186071 0.003187645546591466
101041702 -0.005432471257003981 0.003226122045941685
101071464 -0.00538738940830176 0.003263713130013894
101101226 -0.005350071939351767 0.0032953450684540353
101130988 -0.005331135843286308 0.003321687741323556
101160750 -0.005329249740825036 0.0033446163354124295
101190512 -0.0053253426819059434 0.003370434493481623
101220274 -0.005331919965443316 0.0033930839744078516
101250036 -0.005338268441460466 0.003411876249569001
101279798 -0.005335683026832332 0.003438280917688584
101309560 -0.005331526755028296 0.0034574599330620278
101339322 -0.005340291703262129 0.0034748984726442594
101369084 -0.0053429109187394476 0.0034851213431025675
101398846 -0.005324181811200202 0.0035389446872599313
101428608 -0.0052897046374371405 0.003642431057621459
101458370 -0.005254068928418882 0.0037303781474369527
101488132 -0.005216626962980606 0.0038173145227653974
101517894 -0.005168248032893507 0.003919827533819277
101547656 -0.005126453881199078 0.004015525943203805
101577418 -0.0050757978290218815 0.004107616279433059
101607180 -0.005027318908891613 0.004197650650110866
101636942 -0.004982821422764461 0.004293370130095183
101666704 -0.004929671357368293 0.0043812830959093435
101696466 -0.004988621861859508 0.004331993838160868
101726228 -0.005061592414168793 0.004280910139830104
101755990 -0.005121641642097621 0.004227297856691536
101785752 -0.005192769609285297 0.0041756678571603645
101815514 -0.005247889094172449 0.004116944061357245
101845276 -0.005307877018111122 0.004051219151649386
101875038 -0.005366124535074494 0.003987883044912407
101904800 -0.005421551946050508 0.003927183597779568
101934562 -0.005468079581186872 0.003848240614625474
101964324 -0.005431334864855665 0.0038878675363632673
101994086 -0.005364341742445269 0.003972496379202849
102023848 -0.005284910232048433 0.0040520745508579965
102053610 -0.0052038792700252745 0.004140265134757994
102083372 -0.005136596888974347 0.004211217409271765
102113134 -0.005054893857357078 0.004292265981943108
102142896 -0.004980969063701517 0.004362387704109979
102172658 -0.0049046569373819736 0.004437573677956122
102202420 -0.004822708374205961 0.004508225260009684
102232182 -0.004794705544644392 0.004556661005325804
102261944 -0.004875058420743609 0.004580909924340204
102291706 -0.004926629382009818 0.004595323425816627
102321468 -0.005117123206038781 0.00461075691467037
102351230 -0.005132504787234549 0.004629697667844045
102380992 -0.005230817489520875 0.004647033206231618
102410754 -0.00531802996307055 0.004662472808745583
102440516 -0.005417337321489939 0.004670805461681696
102470278 -0.005515395895317913 0.00468287679191077
102500040 -0.005608487224798614 0.004689834892707397
102529802 -0.005556903022533443 0.004734775313469095
102559564 -0.00546908489936998 0.004788710952011652
102589326 -0.0054097414467559396 0.004818560759281831
102619088 -0.005358797307560441 0.004861872204278216
102648850 -0.005296252437860165 0.004901813827751548
102678612 -0.005311474800240748 0.0049427851159509735
102708374 -0.005189913460166338 0.004978150142389406
102738136 -0.005129542573424336 0.005013280942065402
102767898 -0.0051064734401584785 0.005053642755049122
102797660 -0.005074780961724453 0.005056423618059835
102827422 -0.005051282225230378 0.005042187499317388
102857184 -0.005022954705526962 0.005022139619631777
102886946 -0.005002214497309918 0.00501122761706679
102916708 -0.0049762831749890395 0.005001082827467246
102946470 -0.004957970290392978 0.004988578557747258
102976232 -0.0049340625752341645 0.004972926654312811
103005994 -0.004912626694086274 0.004965501800592429
103035756 -0.004891986139828094 0.004947744564867085
103065518 -0.004867214553052137 0.00495580433471156
103095280 -0.004871688951961185 0.004986160106207941
103125042 -0.004876484611684336 0.005023592543277373
103154804 -0.004876708407809971 0.005059116547680022
103184566 -0.004876790702456367 0.0051011256846020744
103214328 -0.004879688252408974 0.005129144279523917
103244090 -0.00487775014310323 0.005166599693016652
103273852 -0.0048836583607362784 0.0052057550220685886
103303614 -0.004853883374966049 0.005238291519943863
103333376 -0.004915003039385837 0.005278257031630214
103363138 -0.004820151223434784 0.005300254782722697
103392900 -0.004663827487605986 0.0053187508851457845
103422662 -0.004572964696227629 0.005334569775289939
103452424 -0.004479449954996669 0.0053497063210723745
103482186 -0.004454308708385231 0.005364995683871426
103511948 -0.004327177357582504 0.005374612279766074
103541710 -0.004234052053597718 0.005388648785743795
103571472 -0.004154766465159661 0.005396006961403687
103601234 -0.004063118299481036 0.0054025673482173435
103630996 -0.004060109128013799 0.005402845725932604
103660758 -0.004099907940104334 0.005394516599178629
103690520 -0.004138176762703111 0.005392893995999065
103720282 -0.004178815966367738 0.005380508967644337
103750044 -0.0042155918868793 0.005379693626657699
103779806 -0.004259240968354928 0.005366714517696671
103809568 -0.004299566472620398 0.00535595903383106
103839330 -0.004334440945977738 0.005344392924407553
103869092 -0.0043744557276667075 0.005331802499655811
103898854 -0.004416149600010135 0.005332794825890399
103928616 -0.004454203166059769 0.005357988852563374
103958378 -0.004487125000148452 0.005382000387788592
103988140 -0.0045324853493829845 0.005401395940713418
104017902 -0.004565205366680925 0.005427952340732808
104047664 -0.0046036188122412875 0.005450551239706654
104077426 -0.004647802251933181 0.005471923432788417
104107188 -0.00469112262669942 0.005494748699618477
104136950 -0.00472833634436576 0.005514893522105025
104166712 -0.004770235263330804 0.0055362901227607505
104196474 -0.004756849248857611 0.0055908913634424235
104226236 -0.004745678445236328 0.005639174253456148
104255998 -0.004732989166320717 0.005688348728078046
104285760 -0.004723050515846144 0.005745113066594628
104315522 -0.004709408758898046 0.005794967834451677
104345284 -0.004697745597019065 0.005849986189646176
104375046 -0.0046854281843925405 0.00590177298959736
104404808 -0.004671344217342152 0.0059539856438967365
104434570 -0.004652884285183466 0.0060055439860736345
104464332 -0.0046360663171787836 0.0059933138042025155
104494094 -0.004618433677098179 0.005939012478967987
104523856 -0.0045913227858760735 0.005884020122259706
104553618 -0.004576386604246877 0.005837297861492281
104583380 -0.004558336106446262 0.005782798575023057
104613142 -0.004534673168452223 0.005735922609807083
104642904 -0.004512311747733885 0.005688834032700031
104672666 -0.004496261788498738 0.005638642908159204
104702428 -0.004469482525023322 0.0055943303291917995
104732190 -0.004455523368347018 0.005588824423850888
104761952 -0.0044402157972789754 0.005663112590389383
104791714 -0.00442035845703136 0.005743141474978885
104821476 -0.00440492042084803 0.005822149437199343
104851238 -0.004387528610083469 0.00590039003588862
104881000 -0.004375871365158594 0.005979339779974529
104910762 -0.004348965137625638 0.00606368807792449
104940524 -0.004328445906075595 0.0061433904250587455
104970286 -0.004303886033557015 0.006228319778516857
105000048 -0.004272061211663385 0.006316537388125396
