# HZ S RI R 50
90000000 -0.0009699463937683379 0.005517060708874992
90029762 -0.0009431299584750189 0.0055525073295961385
90059524 -0.001222828593888728 0.0055879463995688475
90089286 -0.001088536923152326 0.005627056955124898
90119048 -0.0012669491316200207 0.00564691413797208
90148810 -0.0011160154920210488 0.005685366607932978
90178572 -0.0011822484145409178 0.0057283903387294575
90208334 -0.001125553016336653 0.005753641086997532
90238096 -0.0013809769630304745 0.005776222752291898
90267858 -0.0012476579996337311 0.005818907219788749
90297620 -0.0012405459847961984 0.005801078901560956
90327382 -0.0011598105293618532 0.005758774987883528
90357144 -0.0011889736834629916 0.005714206108922411
90386906 -0.0011060196707745136 0.005673423960728006
90416668 -0.001292175388284416 0.005624569263619878
90446430 -0.001107019058266845 0.005587464912848712
90476192 -0.0010310376814447113 0.005549918596688228
90505954 -0.0010065269020259641 0.005509567364471506
90535716 -0.0010325545984751934 0.005465947755861262
90565478 -0.0010217268168067522 0.005495435164719886
90595240 -0.0009697376623938091 0.005460178032627916
90625002 -0.000935505775887142 0.0054781952020439995
90654764 -0.0008557303135934666 0.005495477894230286
90684526 -0.0008362820988099843 0.0055130557885365436
90714288 -0.0008137939129610075 0.005522428073931601
90744050 -0.0007961144291346495 0.005541273678576466
90773812 -0.0006959023589621805 0.005551903053035882
90803574 -0.0007222437497209181 0.00556760773869922
90833336 -0.0006224107043644767 0.005581271457293641
90863098 -0.0006153969690210261 0.005562402232754603
90892860 -0.0006234845466512067 0.005536935426779485
90922622 -0.0005713137770053777 0.005518485547343965
90952384 -0.0005496793871617393 0.00549712327702627
90982146 -0.0005707536189814028 0.005478472573969392
91011908 -0.0005050649615292585 0.005453746312537971
91041670 -0.000526811046803398 0.005432551744718825
91071432 -0.0005023168977173236 0.005412693698031188
91101194 -0.0006137986815660303 0.005394465161532134
91130956 -0.0004542558081866625 0.005400508978504409
91160718 -0.0005296881851651654 0.005435362591824555
91190480 -0.0005625450323814278 0.0054656945483438305
91220242 -0.0007263730011918392 0.005497784819856947
91250004 -0.0006308011217621948 0.005530182120543619
91279766 -0.0007974304950718905 0.005560632798431707
91309528 -0.0006655605573654845 0.005592603927828989
91339290 -0.000745646722605794 0.005622418433892481
91369052 -0.0007428600742801271 0.005651367632195019
91398814 -0.0009404045245848375 0.00566287369686102
91428576 -0.0008114456438256277 0.0056398843639604065
91458338 -0.0007632689686954933 0.005617358850263123
91488100 -0.000804392802272344 0.005592075392553483
91517862 -0.0008002535139744457 0.005570128284840747
91547624 -0.0007570830042052661 0.005547046248287469
91577386 -0.0007565251216194363 0.005523146298387189
91607148 -0.000791813533468052 0.005498931932138353
91636910 -0.0007849088156979651 0.005475457666441481
91666672 -0.0007462103096441582 0.005453625108990962
91696434 -0.0007168279561337494 0.005473273506162012
91726196 -0.0006034592781213877 0.005494274685762024
91755958 -0.0005336577025207222 0.005511184296980112
91785720 -0.0004952129933006544 0.005528868240786925
91815482 -0.00038622315124859925 0.005544075612423187
91845244 -0.00031144930397175515 0.0055553173066692964
91875006 -0.00027163462051469565 0.005567064665900339
91904768 -0.00030463559511181886 0.0055823395596198595
91934530 -0.00012004749178829181 0.005585425884874645
91964292 -9.753197941991516e-05 0.005604082879309645
91994054 -6.404583644169604e-05 0.005626983474136106
92023816 -0.00020887297088732488 0.005658629060856789
92053578 -0.00010411952219775707 0.005676772336131748
92083340 -0.00010820551236043516 0.005703108060174517
92113102 -7.583543793181396e-05 0.005726386743529787
92142864 -0.00011576693224919507 0.00575320300605108
92172626 -8.470619055335407e-05 0.005777420764188886
92202388 -0.00022286506260919242 0.00580647363092174
92232150 -0.00012995211618554398 0.005802106499803714
92261912 -0.0002525492881970966 0.0057525112127127945
92291674 -0.0001370062635226702 0.0057003306740579344
92321436 -0.00018481962711560933 0.0056488211121852915
92351198 -0.0001676696189616083 0.005596243324828713
92380960 -0.00021692883953641133 0.00554826552802395
92410722 -0.00023235282322187317 0.005498125084114736
92440484 -0.0002160410780392761 0.005449023707760618
92470246 -0.000229692436230526 0.005401919839139227
92500008 -0.0002708785045883234 0.005354258644256912
92529770 -0.0002788003400542657 0.005376962419462731
92559532 -0.0002585885626895175 0.005398817383344733
92589294 -0.0002928972562470996 0.005419064429043541
92619056 -0.0002745727291899916 0.005442568308546021
92648818 -0.0002818621427027183 0.005464244733926299
92678580 -0.00031847690927353824 0.005485578666815173
92708342 -0.0002987307362734391 0.005511903309884219
92738104 -0.0003078447950632955 0.005533801180119608
92767866 -0.0003452676363608065 0.00555625656156854
92797628 -0.00030088506358141794 0.005572555487545185
92827390 -0.0002999974442802666 0.005586920487550885
92857152 -0.0002694925795201967 0.005602307511603039
92886914 -0.0003215398640126123 0.005609848544284423
92916676 -0.00018391559253584126 0.005628644765807998
92946438 -0.00017941946928579547 0.005641505117964568
92976200 -0.00015192653644841223 0.005654534076564779
93005962 -0.0001972602119029046 0.0056681335570332395
93035724 -8.869727981026585e-05 0.005679226719283444
93065486 -0.00011678211416776774 0.005687563851879267
93095248 6.921082657396637e-05 0.005687267328930364
93125010 0.0001236078647202603 0.005684978881641732
93154772 0.00023048135350744567 0.00567655786258706
93184534 0.0002138786099811504 0.005671054348278339
93214296 0.00040187656741019566 0.0056517822320274365
93244058 0.0003492135571282815 0.0056651772566051846
93273820 0.0005645329336577873 0.005625912397348501
93303582 0.0005832487388070942 0.005636561637816889
93333344 0.0007037738078794685 0.005606353146674155
93363106 0.0006493462344707507 0.005617805347217221
93392868 0.0005687027576873909 0.00563144230974169
93422630 0.0005270920096983471 0.005636314856162394
93452392 0.0004938820101908091 0.005641712598404377
93482154 0.0004147210677377144 0.005646369637283521
93511916 0.0003469318914934675 0.005659145919093439
93541678 0.00032138733858667206 0.005654181110157908
93571440 0.00024256271783854234 0.005652465135077427
93601202 0.00020624041803030065 0.005650130999283648
93630964 0.0002256557264954385 0.005651243384872226
93660726 0.0002654854519155889 0.005648131453835512
93690488 0.00034526532585007 0.0056472070454987484
93720250 0.00038481931173195443 0.005648037963271473
93750012 0.0003637848377214762 0.005677381716929858
93779774 0.0005249558811545429 0.005637823133955058
93809536 0.0005065810937792349 0.005632707953773596
93839298 0.0006250652347927834 0.005624476690372761
93869060 0.0006853811046275199 0.005615441565325298
93898822 0.0007486385226263771 0.005604578890361726
93928584 0.0007500059729896514 0.005589180268983782
93958346 0.0007851014992093172 0.005570113705391298
93988108 0.0007362841328605279 0.005557398101944235
94017870 0.0008048810303384167 0.005537571670963009
94047632 0.0007720674807411109 0.0055240192319447965
94077394 0.0008595392506536831 0.005504318164529017
94107156 0.0008618517199959707 0.005486090565063796
94136918 0.0008973121189480628 0.005467264951801332
94166680 0.0009014410710476789 0.005450234387814738
94196442 0.0009105354405432391 0.0057231520588866295
94226204 0.0008613057074918456 0.00602683428556642
94255966 0.0009208418556657547 0.006360646762108048
94285728 0.0008860316281638425 0.006736742633753218
94315490 0.000857824503752709 0.007153888597640879
94345252 0.000819296843113418 0.007628855676567371
94375014 0.000716199416830301 0.008172291798784405
94404776 0.0006137404573360249 0.008784003319328413
94434538 0.0004356143868163868 0.009483453493460308
94464300 0.0004710663484424165 0.009204122439522669
94494062 0.0006486895903148072 0.008497841728260323
94523824 0.0007662403517129251 0.007881478679947132
94553586 0.0008331919921249448 0.007341487617764568
94583348 0.0009183863645659587 0.0068674320286776945
94613110 0.0009493579700766083 0.00644562793703486
94642872 0.0009866439460067997 0.006066407080605566
94672634 0.0010245149120429703 0.00572562723405866
94702396 0.001042298330440063 0.005416001321455616
94732158 0.0010489126242113143 0.005212309573669566
94761920 0.0010724146649021616 0.005159739586958035
94791682 0.0010669974544316428 0.005108119544518426
94821444 0.001119515127204939 0.005054139987589413
94851206 0.0011160270201069874 0.005005930632706008
94880968 0.0011746118718696575 0.004953963191476698
94910730 0.0011886051996424305 0.004900988914943018
94940492 0.001220232510059649 0.004847994575124439
94970254 0.0012091452366819438 0.004799112087340946
95000016 0.001257138308651275 0.004747953660496066
95029778 0.0012458216638891308 0.004762695982940296
95059540 0.001279321267733124 0.004778308219094229
95089302 0.0012935133482647634 0.004789503655494097
95119064 0.0013117773288722813 0.004803824911963977
95148826 0.00129708825992803 0.0048181239322651675
95178588 0.0013311946683437791 0.004831513213056656
95208350 0.0013432263297629555 0.004845213723470499
95238112 0.0013629008020809125 0.004857784315244195
95267874 0.0013686697283720136 0.004869667133512327
95297636 0.0013985123306395977 0.004865684736155824
95327398 0.0014269794092622466 0.004850371507641508
95357160 0.0014483631870135193 0.004834266713487807
95386922 0.00148174755934141 0.0048158743965519436
95416684 0.0015104897864448364 0.0048030963293610104
95446446 0.0015320709467907965 0.004783750960601099
95476208 0.0015695058842039404 0.004766521025928703
95505970 0.0015942009078379286 0.004743667611439131
95535732 0.0016224905922741842 0.004725244762588185
95565494 0.0016660619650742195 0.004701022696304776
95595256 0.0017218251612474492 0.0046700164909524375
95625018 0.0017726905043896014 0.0046391788577319
95654780 0.0018301339742948337 0.0046071900111936456
95684542 0.0018906204320543636 0.004567373562488649
95714304 0.0019388779673932674 0.004533856347310129
95744066 0.0020025634431149676 0.004496853318304049
95773828 0.002049283838658771 0.004455748126467369
95803590 0.002109255599704984 0.004416533665770331
95833352 0.0021659344096783377 0.00437220088356961
95863114 0.0021757032867441074 0.0043048956687970355
95892876 0.0022309570674629423 0.004219132981391413
95922638 0.0022226883517979306 0.004156758748478603
95952400 0.0022764856697016144 0.00407210649991257
95982162 0.002266478029236487 0.004007378219212574
96011924 0.0019109011089515745 0.004006970705922364
96041686 0.00235470764706757 0.0038357536823897588
96071448 0.0023564009537064405 0.0037728827121389532
96101210 0.0023739426053597775 0.003699378018418421
96130972 0.0020509421910005674 0.003731926322799743
96160734 0.0024347232540462864 0.003612393152170188
96190496 0.00246985238538708 0.0035729732229356154
96220258 0.0025092177728364582 0.00353017800890163
96250020 0.0025439353050758008 0.0034876841710868626
96279782 0.0025760967039646847 0.00344763232355346
96309544 0.0026391887290557374 0.003382207039351568
96339306 0.0026422104288314307 0.003346661506261189
96369068 0.0027031959596690927 0.003278742357607031
96398830 0.0027229226272277684 0.0032418485677954962
96428592 0.0027699636627514994 0.0031715336804308556
96458354 0.0028155420218743087 0.003105791881187105
96488116 0.0031991157886156587 0.0028473925541288307
96517878 0.0029159145917978277 0.00296309723680724
96547640 0.002961957432313021 0.0028828045954685517
96577402 0.0030423101203860673 0.002770496957732035
96607164 0.003055924496330256 0.0027123552602898206
96636926 0.003395196167971479 0.0023972708398173497
96666688 0.003135446767410954 0.0025361995946831363
96696450 0.0031261850326582638 0.002436181527982776
96726212 0.003110868700611585 0.002332713251766074
96755974 0.002794366110159266 0.0024599527072390664
96785736 0.0030833669067156493 0.0021218919816179713
96815498 0.0028259435940690206 0.0022235711697601817
96845260 0.0030490872454195113 0.0019094416997447582
96875022 0.00302772352031365 0.0017992096956998443
96904784 0.0030028002251443536 0.0016997735260283334
96934546 0.0029902992864590363 0.0015629747451098015
96964308 0.002975762905648256 0.0014826006473728872
96994070 0.0029663026574662573 0.0013936896935896872
97023832 0.0030969704643998863 0.000994850307352323
97053594 0.002943478473730795 0.0011931051784838792
97083356 0.0029253426321658874 0.0011007272326078016
97113118 0.0027940543610376605 0.0012429652960919012
97142880 0.0029039526543176565 0.0008804147050656438
97172642 0.002937739779033927 0.0004542422779249802
97202404 0.0028608791178685858 0.0006633904012376687
97232166 0.0028364788687634305 0.0005390676057954423
97261928 0.0028130419042382004 0.0004022245740165101
97291690 0.002787187346161091 0.00025143313457658156
97321452 0.0027503527657237324 0.00010462659100680245
97351214 0.0027112722635533686 -4.201599251290125e-05
97380976 0.002663470173082402 -0.00017972894649975556
97410738 0.0026089452815465392 -0.00034588924304289185
97440500 0.0025470197512002116 -0.000500595991113819
97470262 0.0022536460304237753 -0.0009524711323755456
97500024 0.002403048896688696 -0.0008119249363246839
97529786 0.00232639178604039 -0.0009466595284641919
97559548 0.0018994134641989037 -0.0013588838991706283
97589310 0.0021259042853750995 -0.0012545222248459852
97619072 0.001976260691068064 -0.0014345479419700295
97648834 0.0019044346056382815 -0.0015508376124555876
97678596 0.0017730512830808581 -0.0016934477343150886
97708358 0.0011597399373201437 -0.0019664722513959973
97738120 0.001496749177706382 -0.0019776667344919056
97767882 0.001343703251578543 -0.0021018822003364248
97797644 0.0016414198547208534 -0.002134549820157405
97827406 0.0009639202116540369 -0.002336131522199367
97857168 0.0007060370368438816 -0.0024406412374490846
97886930 0.00047584877005414877 -0.0025168744109272437
97916692 0.0008167743849577347 -0.0026670034989889624
97946454 -6.6055260514777955e-06 -0.002630098542906731
97976216 0.00032801663597322616 -0.0028351929552580713
98005978 -0.001108327311178134 -0.0022816179685637068
98035740 -0.0007753875998024594 -0.0026351718578148213
98065502 -0.0009637130528545348 -0.0026690186225408726
98095264 -0.0011312061886581612 -0.0027303370230861417
98125026 -0.0013187602295731727 -0.002749563279554331
98154788 -0.0020259673023497104 -0.0022120615080661425
98184550 -0.0016484655887141857 -0.0028534328436651225
98214312 -0.001826709649961682 -0.002895454387377995
98244074 -0.0024940550725543235 -0.0022277109069794875
98273836 -0.0021009116692122906 -0.003022332884445385
98303598 -0.0022935147171676915 -0.003025659107453443
98333360 -0.002445704912624335 -0.00307846373869667
98363122 -0.0026036604405263643 -0.0030650281068659653
98392884 -0.0028104880210665087 -0.00297539070965661
98422646 -0.0029410621729991228 -0.002961457490525092
98452408 -0.0031054059736366174 -0.0029047767657623333
98482170 -0.003298213933188931 -0.002779196551206447
98511932 -0.0034108115062956336 -0.0027661572833070575
98541694 -0.0038476604467167974 -0.001631519312747118
98571456 -0.003709480870900611 -0.0025465089710358796
98601218 -0.0034689127837799747 -0.0034347289200149407
98630980 -0.004000264134537714 -0.00234570180053902
98660742 -0.0041516341619465035 -0.002213313289772593
98690504 -0.0043669584316197935 -0.0010158501563013822
98720266 -0.004240514326430783 -0.0029510053835600115
98750028 -0.004572726899739795 -0.0017586568808719372
98779790 -0.004702364210899085 -0.0016006283900142288
98809552 -0.004803659170872211 -0.0015231896648045281
98839314 -0.004908647220533039 -0.001287558015138282
98869076 -0.005008971113200185 -0.0011984810142863299
98898838 -0.005166738107541653 -0.0020769955059572217
98928600 -0.005186095235376953 -0.0008898305439017795
98958362 -0.005417693995468383 -0.0018688395129390534
98988124 -0.005379169872553281 -0.0007501166002082115
99017886 -0.005526556700937944 -0.0005271434529789256
99047648 -0.005590199292982058 -0.0005291720884645369
99077410 -0.005651877858650429 -0.00034926894211894397
99107172 -0.005846088195437626 -0.0004294263355727543
99136934 -0.005818107534690862 -0.0002371206631281999
99166696 -0.0058838555384571455 -0.00011925570131704458
99196458 -0.005888344596826195 4.438188561239128e-05
99226220 -0.005817601022138649 0.00021550983096758897
99255982 -0.005993091091687855 0.00011066467452723781
99285744 -0.00588822665472578 0.0003532194256447305
99315506 -0.0060933418478904735 0.0001754950720388559
99345268 -0.006084858411959061 0.00030947035101490844
99375030 -0.006027245133829949 0.0004839870514476151
99404792 -0.006054744128667195 0.0005241148601104848
99434554 -0.006064551550580356 0.000585023791635139
99464316 -0.0060205728505079974 0.0008210004579759476
99494078 -0.006032816667679357 0.0009492713844625773
99523840 -0.005951903350619244 0.0012223732121101258
99553602 -0.00590116889039624 0.0014158187973138702
99583364 -0.006446595110928846 0.0008160169407324674
99613126 -0.005094558196504135 0.0024848833307466933
99642888 -0.005742190243939861 0.0019613896709238174
99672650 -0.005675583760796173 0.002119724958668125
99702412 -0.00623082383696793 0.0016324225960091148
99732174 -0.0055676735743058064 0.0023819970295472248
99761936 -0.00542332103638318 0.002539548913991831
99791698 -0.005711906414846868 0.002327965004280876
99821460 -0.005677407625428016 0.0023725913035880755
99851222 -0.005890806822743743 0.0022463603913580807
99880984 -0.006420011920598819 0.0017373076840612193
99910746 -0.005785301625926265 0.002362068171132415
99940508 -0.006485640548264592 0.0017088821496087352
99970270 -0.005848112809661722 0.0023515722554527303
100000032 -0.005879535403421895 0.0023388682999392583
100029794 -0.005868777357768712 0.0024041316441784154
100059556 -0.005849235515852665 0.0024693596124482535
100089318 -0.005837456949349835 0.0025402727571632606
100119080 -0.005813457902155932 0.0026110006397353247
100148842 -0.005800273780122847 0.0026842882220029516
100178604 -0.005781131394181359 0.002741977273463536
100208366 -0.00576617330238001 0.002804594093113462
100238128 -0.0057449123262136095 0.002862288523005338
100267890 -0.005726592662203801 0.002924730954397504
100297652 -0.005710666358968226 0.0029702249343486033
100327414 -0.005706110395387051 0.0030171032767586903
100357176 -0.00569987830788999 0.003058955341415991
100386938 -0.005688707699863873 0.0031120085981336614
100416700 -0.005678997772890162 0.003154053119997526
100446462 -0.005669794665073426 0.0031958556389424784
100476224 -0.005663140185359292 0.003232980772376677
100505986 -0.005657838066531489 0.0032713115621163377
100535748 -0.005650887438303402 0.0033097096900422257
100565510 -0.005657685750569652 0.003353529932823076
100595272 -0.005696729010908455 0.003418425948913023
100625034 -0.005737065736987928 0.0034706638325328154
100654796 -0.005794715272631113 0.0035218275966336383
100684558 -0.005835593788289459 0.0035741691278000772
100714320 -0.0058817468516289455 0.003632090340039124
100744082 -0.005937482596613566 0.0036833157989694517
100773844 -0.005982664372618012 0.003734233814293123
100803606 -0.006037228810264917 0.0037867075104211024
100833368 -0.006080843507934187 0.0038392191952156965
100863130 -0.006021664419649443 0.0038723738675278383
100892892 -0.005954880383315282 0.0039074079892330695
100922654 -0.005854649592867095 0.003955498877938026
100952416 -0.005788546666033188 0.003989895805501145
100982178 -0.005723386076895176 0.004026905291675944
101011940 -0.005652228932123513 0.0040546941537303255
101041702 -0.0055882600487438 0.004075737831406702
101071464 -0.005521321174770669 0.004099272128020948
101101226 -0.005465929879288378 0.004130832883575379
101130988 -0.005464522288518076 0.004147432943895688
101160750 -0.005456413372019116 0.004163181524234399
101190512 -0.005440404120524256 0.0041746501306835024
101220274 -0.005429755747283612 0.00419142124552682
101250036 -0.005424549489219406 0.004212065716337125
101279798 -0.005411570768279706 0.0042214297455089355
101309560 -0.005400760811366551 0.004239717082614316
101339322 -0.005390261359675785 0.0042520900281062335
101369084 -0.0053779609545901805 0.004256873667290908
101398846 -0.00536065174240756 0.004295783819783339
101428608 -0.005301324232315155 0.004387444291808999
101458370 -0.005244520967981205 0.004474208448957371
101488132 -0.005184628806647958 0.0045659276588951745
101517894 -0.005118825427435448 0.004649246209085125
101547656 -0.005056329053858432 0.0047419686126439035
101577418 -0.004994648865279581 0.00482757439276999
101607180 -0.004917509561331258 0.004910296693098542
101636942 -0.004851778260150363 0.00498896116051367
101666704 -0.0047794791166317074 0.005073047839667827
101696466 -0.004850316918605825 0.005019401416892823
101726228 -0.004923229766906176 0.004963143523733106
101755990 -0.004993284256399193 0.004899670534838744
101785752 -0.005059140344165189 0.004843322269807088
101815514 -0.005117937389133146 0.004776887673987514
101845276 -0.00517425261168942 0.004713036215938281
101875038 -0.005241865588827674 0.004638482837463314
101904800 -0.005291093497712882 0.0045635789785323675
101934562 -0.0053508993760811915 0.004494491722608094
101964324 -0.005307821471698661 0.00452033039302901
101994086 -0.005224338826470965 0.004588333758859694
102023848 -0.005135635327629144 0.0046572667929968715
102053610 -0.005042962617084447 0.004738889229326209
102083372 -0.004956110432738262 0.004798278965341083
102113134 -0.004872925112754067 0.004856192007545704
102142896 -0.0047823330132796375 0.004925159626865735
102172658 -0.004683636899746583 0.004981777325304925
102202420 -0.00459540099892919 0.005042280126429598
102232182 -0.004559078122376593 0.00507797492668736
102261944 -0.0046423138690270494 0.0051056461272235565
102291706 -0.004781555576232759 0.005131129781975246
102321468 -0.004805758236378122 0.005143638945003342
102351230 -0.004895870135341534 0.0051595500909517155
102380992 -0.004916151907406696 0.005179564616215064
102410754 -0.0050399510252284105 0.005191153312741687
102440516 -0.005166367442342146 0.005199207038006566
102470278 -0.005262395477976813 0.005204618069537533
102500040 -0.005360832024088583 0.005214079061806352
102529802 -0.005301363160576399 0.005246065382571322
102559564 -0.005239871565886441 0.005283412083858312
102589326 -0.005175917804195291 0.00529893751636986
102619088 -0.005113080376658119 0.005346146285777439
102648850 -0.005053597344421528 0.00537366733442296
102678612 -0.004990781494592643 0.005398100825733038
102708374 -0.004932870263234644 0.005425929240421464
102738136 -0.004866233700577131 0.005459467104737753
102767898 -0.004804058698976574 0.005478910012735635
102797660 -0.004829143034235656 0.005482085142000549
102827422 -0.0047445397513828395 0.005455554877398864
102857184 -0.004720433537084703 0.005432860863569264
102886946 -0.004700216616919187 0.005405297366791137
102916708 -0.004674243371289775 0.005392074799775855
102946470 -0.004653566948047887 0.005365894525391502
102976232 -0.0046293796363902325 0.005351569645045913
103005994 -0.004607005327023436 0.005323566304152088
103035756 -0.004584230177796302 0.005306914073300889
103065518 -0.0045666563755710115 0.005298024827568697
103095280 -0.004567069472195698 0.005331410062633039
103125042 -0.004565342673755249 0.005360900220758707
103154804 -0.004560863876472829 0.0053945647733852015
103184566 -0.004562538936933836 0.005422057873672251
103214328 -0.004561776889651427 0.005452391680989655
103244090 -0.004590816594482662 0.005485298415987953
103273852 -0.00458837688062371 0.0055146061735071574
103303614 -0.004593408635669646 0.005543479877155466
103333376 -0.004595103351688525 0.00557807117479453
103363138 -0.004499046993875123 0.005587253060495693
103392900 -0.004401953235591935 0.0055955345008389164
103422662 -0.004309115204991022 0.005604870879003082
103452424 -0.0041861407749644195 0.005608762024470551
103482186 -0.004095391231463824 0.005610410415842324
103511948 -0.0040074220078612 0.005609326313552317
103541710 -0.003919928440798733 0.005610904460318175
103571472 -0.003828738129236396 0.005612431745898307
103601234 -0.003742423628682364 0.005609671407470516
103630996 -0.0037418032135822584 0.005604387910256732
103660758 -0.0037796922343465884 0.005596356186159912
103690520 -0.003827662003214164 0.005587474154731552
103720282 -0.003866337395832349 0.005580352405899117
103750044 -0.003907053809315642 0.005574516437545436
103779806 -0.003943225011620368 0.005558015805839422
103809568 -0.003988172060071347 0.005543742057315805
103839330 -0.0040291918367706195 0.005532235102658678
103869092 -0.004072159416595789 0.005522027831303413
103898854 -0.0041088811477428405 0.005518004562008697
103928616 -0.004142719164755117 0.005535375742159987
103958378 -0.004185584975732038 0.00555971144803112
103988140 -0.00421966985943183 0.005575314717025031
104017902 -0.004263041450587881 0.005603771742682734
104047664 -0.004301126212645463 0.005617793754874204
104077426 -0.004342479590585383 0.005639945271055568
104107188 -0.004376055433145371 0.0056610979995037084
104136950 -0.00442274509267892 0.0056811885864249175
104166712 -0.0044663663377702174 0.005704360859358878
104196474 -0.004455168105945479 0.005743692550973104
104226236 -0.0044394337221771085 0.005794316404712163
104255998 -0.00443064572849511 0.00584267813513756
104285760 -0.004415436177001582 0.005888389737773809
104315522 -0.004405660793876025 0.005933157966578671
104345284 -0.004388862133481154 0.00598465834419309
104375046 -0.0043770480608590675 0.006030751749009172
104404808 -0.00436021209654979 0.006080663850930285
104434570 -0.004347209309315973 0.006129212405194884
104464332 -0.0043337691148992025 0.006107976522272079
104494094 -0.004316170608514866 0.006049781032029813
104523856 -0.004304205220360454 0.005997352893462579
104553618 -0.0042829777121880085 0.005942356585646798
104583380 -0.004272663684025202 0.005888560681359706
104613142 -0.004252966213215781 0.005835419660169447
104642904 -0.004232921102580334 0.005783473087523966
104672666 -0.004221690584844486 0.005734339540923437
104702428 -0.0042030603136030435 0.00568630789808597
104732190 -0.004183198005816856 0.005676202766759736
104761952 -0.0041643831485576885 0.005748434953127564
104791714 -0.0041552357354631055 0.005826747556196621
104821476 -0.004128027221918722 0.005898093016570008
104851238 -0.0041166988009907575 0.005975104977535539
104881000 -0.004098363073688775 0.006049182419758431
104910762 -0.004076918544375191 0.006126851275881095
104940524 -0.0040533443918775655 0.006204054808353918
104970286 -0.0040304161422514894 0.006285872652168133
105000048 -0.004001235628581197 0.0063636665344546355
