# HZ S RI R 50
90000000 -0.0009639507388624559 0.005517096620636576
90029762 -0.0009395406689434193 0.005553969744868405
90059524 -0.0011836323943685966 0.005579256647341246
90089286 -0.0011191188980329467 0.00562262728163142
90119048 -0.0012446994906234578 0.005644123045937161
90148810 -0.001109921737233869 0.005683419591991854
90178572 -0.0011411222776329271 0.005719838352526967
90208334 -0.0011202977455926975 0.005756501993615148
90238096 -0.0013768948352994965 0.005774580450755885
90267858 -0.0013166869461093684 0.005821620462651432
90297620 -0.0012365592025773812 0.005802143832797744
90327382 -0.0011537252403169454 0.005761813811271459
90357144 -0.001180192217684103 0.005713098783114177
90386906 -0.001102211121694345 0.005673880672348876
90416668 -0.001284732128855737 0.005623902291903177
90446430 -0.0010999967485221058 0.005587415377779753
90476192 -0.0010262190986893296 0.005549645372223709
90505954 -0.0010040125754064017 0.005506857892340289
90535716 -0.0010282591114446037 0.005465666820661948
90565478 -0.0009528494575444836 0.0054465381095171765
90595240 -0.0009660210724712718 0.0054608816455733586
90625002 -0.0009495245590627342 0.005477178480851557
90654764 -0.0008482505239166438 0.005494082626001386
90684526 -0.000814374896375806 0.00551169722136789
90714288 -0.0008260515710354717 0.005525907610387654
90744050 -0.0007902115004310015 0.005540077751076491
90773812 -0.0007073146534996628 0.005556049534664577
90803574 -0.0007174866241588448 0.005572819442492896
90833336 -0.0006325772805123868 0.00558506878976321
90863098 -0.0006110234473503562 0.005561790297145756
90892860 -0.0006328218764534748 0.005540551561773362
90922622 -0.0005655502589755515 0.005519789446407942
90952384 -0.000543945478668859 0.005496372960421174
90982146 -0.0005642729408069768 0.005474356649080599
91011908 -0.0005002888529681359 0.005452125356113714
91041670 -0.00053677000051624 0.005432929044310125
91071432 -0.0004999698908746558 0.005410274347907218
91101194 -0.0006046401928155831 0.005392682037501938
91130956 -0.0004473158995829745 0.0054001561939768005
91160718 -0.0005247334260448994 0.005435971463723227
91190480 -0.0005574172274878015 0.00546559762746878
91220242 -0.0007178831240024533 0.005497105050300756
91250004 -0.0006280971587514235 0.005528213060288497
91279766 -0.0007926713279471622 0.0055575092941085825
91309528 -0.000659498969027578 0.005590882158945394
91339290 -0.0007402359804026133 0.005618756998556602
91369052 -0.0007368143717769461 0.005649903379978719
91398814 -0.0009334163792213919 0.005658483445086186
91428576 -0.000837650159553318 0.005639862220337455
91458338 -0.0007611544188500503 0.005615492690820538
91488100 -0.0007980320991964145 0.005591177814738142
91517862 -0.0007944104720381094 0.005569222367497883
91547624 -0.0007508494675122516 0.0055466041290749574
91577386 -0.0007477727136497021 0.00552019581431167
91607148 -0.0007855217201481752 0.005500201018040322
91636910 -0.0007799709654460303 0.005474673221568241
91666672 -0.0007388642234075785 0.00545365304019106
91696434 -0.0007068959458802689 0.005471859221495559
91726196 -0.000598904112893436 0.005494059287773823
91755958 -0.0005255539381691358 0.0055110259050358025
91785720 -0.0004892253220092946 0.005526268375346183
91815482 -0.00037885750663757 0.0055414885029015995
91845244 -0.00030296802986065944 0.005553765428808186
91875006 -0.00026565016777914147 0.005568519911855605
91904768 -0.0003144774175649987 0.005579567198755287
91934530 -0.00011420460025017862 0.005585686866650547
91964292 -8.998236980911303e-05 0.005605315343532239
91994054 -5.682512939413852e-05 0.005625632579435183
92023816 -0.00020054367760255886 0.0056569268129260854
92053578 -9.67520709214885e-05 0.005676751598409891
92083340 -9.961529034586419e-05 0.005697013188407857
92113102 -6.809882115460805e-05 0.005725459230245952
92142864 -0.00010501481214045213 0.005750398190833721
92172626 -7.524025517303387e-05 0.005774812693761419
92202388 -0.0002171460606874664 0.005805567024920673
92232150 -0.00012145904099708232 0.005801249069810075
92261912 -0.00024268647108156705 0.005750937322150585
92291674 -0.0001241913503990883 0.005696303150121278
92321436 -0.00017818354078997118 0.005646552309830886
92351198 -0.00016226486551540177 0.00559617500820684
92380960 -0.00021076429339791512 0.005548095151595694
92410722 -0.00022459128491049207 0.005496652126704783
92440484 -0.00020735951219680318 0.005446379028459727
92470246 -0.00022060143191092446 0.00539883626575278
92500008 -0.00026481499540767414 0.005351512114234396
92529770 -0.0002689712169626804 0.005372240453605307
92559532 -0.00027868665109079797 0.00539715090806943
92589294 -0.0002846517315810226 0.005415934799991702
92619056 -0.0002643030284009672 0.005438033936257105
92648818 -0.00027083342227189025 0.0054621238723493075
92678580 -0.00030869828478218405 0.0054844345423073065
92708342 -0.00028825395199699586 0.005508115696883551
92738104 -0.0002969410073262154 0.00553076093577205
92767866 -0.0003346545685386284 0.005553217303681923
92797628 -0.0002915334940772598 0.005570910271606238
92827390 -0.00030527971766229503 0.005580391930576406
92857152 -0.00026129737482302333 0.005597003822267944
92886914 -0.0003288101944456808 0.005607235916069762
92916676 -0.00017302215158486743 0.005625014948259124
92946438 -0.00017107769398737 0.005636231776553369
92976200 -0.00014013813101465355 0.005648756430738125
93005962 -0.0001541584637061646 0.00565336347341333
93035724 -9.788856307000456e-05 0.005676486778078316
93065486 -0.00015860060147103686 0.005696520357344456
93095248 6.424967046891064e-05 0.005685498709333449
93125010 0.00021503592917674073 0.005550375694863083
93154772 0.00024319741125548982 0.00567081110488183
93184534 0.00022653402505191583 0.005665756661731992
93214296 0.0004000430469137421 0.005650064520425246
93244058 0.0003902265433446126 0.005648318046391378
93273820 0.0005456984446509933 0.0056302286681070455
93303582 0.0006263840849253926 0.005615730282188981
93333344 0.0007950192465257645 0.005573573973279211
93363106 0.0006760519427666217 0.00560909726213557
93392868 0.0005957431019354307 0.0056193232428516805
93422630 0.0005395696803076255 0.005626163374284199
93452392 0.0005049781625891134 0.005632677628826474
93482154 0.00042549523297448 0.005638700741685816
93511916 0.0003900006460403414 0.005641646073904355
93541678 0.00033077852995208335 0.005644739269595379
93571440 0.0002528709681471393 0.005644074859016063
93601202 0.00021539006189437814 0.005642347705361635
93630964 0.00023979094087911052 0.005642493267244567
93660726 0.00027894573296760914 0.005638690202008634
93690488 0.0003580121685583646 0.005636521547784121
93720250 0.0003954558750673722 0.005637125448003033
93750012 0.00045390168508135546 0.005630839156189277
93779774 0.0005368803420607863 0.005626562969389504
93809536 0.0005207661839972436 0.00562110875685658
93839298 0.0006390927921894826 0.005612570513362638
93869060 0.0006992518639328196 0.005602425518379341
93898822 0.0007642176936820525 0.005592341513060136
93928584 0.0007624475461976387 0.005575797557599922
93958346 0.0008005148446861945 0.005559434549785772
93988108 0.0007505086454381162 0.005542986535591553
94017870 0.0008199639208371483 0.005522570583930266
94047632 0.0007879751444242578 0.005507912968819474
94077394 0.000872350062812054 0.005488871129389104
94107156 0.0008740864397902352 0.005471736996449849
94136918 0.0009095842479108605 0.005451214595622729
94166680 0.0009141775089371853 0.005433944824531944
94196442 0.0009230917810909389 0.00570426451463277
94226204 0.0008740371649949884 0.006008172105038554
94255966 0.0009396813468368023 0.006338784862347939
94285728 0.0009079432547165417 0.006712804733728978
94315490 0.0008751524001374281 0.007133868768056449
94345252 0.000844031231212979 0.007604963118413746
94375014 0.0007434505733222949 0.008143041156993741
94404776 0.0006443041631757184 0.00875200464782997
94434538 0.00046069939908411245 0.009454149933815575
94464300 0.00050269931449677 0.009171667999562068
94494062 0.0006510559938275299 0.008472188941880565
94523824 0.000789049220427077 0.007850808044081385
94553586 0.0008583529569593599 0.007312854271052202
94583348 0.000939142333671921 0.00683521138422437
94613110 0.0009692415959543089 0.006414774133184936
94642872 0.0010019847786235001 0.006036072792794085
94672634 0.0010407365482220567 0.0056981359743019135
94702396 0.0010563465854308456 0.005389427479201247
94732158 0.0010649029096294847 0.005183020120140002
94761920 0.0010884754523878592 0.005130163937063927
94791682 0.001081828828031562 0.005078992551506781
94821444 0.0011341069066407735 0.005026000648718884
94851206 0.0011297134656115795 0.004972736322458586
94880968 0.0011903945561589806 0.0049200903596434515
94910730 0.001204215997948994 0.004867650577439814
94940492 0.0012351883665838814 0.004815430819440918
94970254 0.0012242214125911025 0.0047648349419578215
95000016 0.0012682898084748874 0.004713677115523431
95029778 0.0012602073550886067 0.004727502910729593
95059540 0.0012935725793985066 0.004740240509048198
95089302 0.001304080751435168 0.004753723626630915
95119064 0.001325897337203922 0.004768962330249795
95148826 0.0013097399471713894 0.004780966545517889
95178588 0.0013415082635802576 0.004791013322835594
95208350 0.0013539704876319252 0.00480313050330447
95238112 0.0013737136439652016 0.004813113800700452
95267874 0.0013806163084324175 0.0048272721510012
95297636 0.001409217807369021 0.0048168160382343035
95327398 0.001435569140288665 0.004801408787005353
95357160 0.0014587171351799896 0.004784655421440846
95386922 0.0014910558790942065 0.004767754345404293
95416684 0.0015179991017327487 0.004747523782862657
95446446 0.0015443213519504896 0.004727822728741048
95476208 0.0015743381386666589 0.004707907183002026
95505970 0.0015997894172806544 0.004686038147882141
95535732 0.0016304816376432312 0.004663920467042971
95565494 0.0016695252136950602 0.004638752317863741
95595256 0.0017244264654919152 0.004606102454325671
95625018 0.0017745533435019633 0.004575049394571273
95654780 0.0018291674999662063 0.004536748592176448
95684542 0.0018879286223953842 0.004501627203418145
95714304 0.0019408997038879961 0.00446235913972546
95744066 0.001993106386585762 0.004423223138281849
95773828 0.002040581859212206 0.004382087158154515
95803590 0.002103465674966093 0.004336403048344181
95833352 0.002154874877207935 0.004289942239587951
95863114 0.002180597114890187 0.0042173881455434565
95892876 0.002200076822469112 0.00414118758349235
95922638 0.0022222091124735476 0.004062923750355212
95952400 0.002241906264445543 0.003987971789064309
95982162 0.0022580155524899626 0.003909919670465874
96011924 0.0019181088416965128 0.003904986094129158
96041686 0.0022952073416690386 0.0037609194191941513
96071448 0.002314303301978222 0.0036851019433010615
96101210 0.0023315800922507034 0.0036051040116694367
96130972 0.0020392200984398656 0.0036205380708068725
96160734 0.0023445670901364635 0.0035369874633189987
96190496 0.002415785401100093 0.0034733694361152997
96220258 0.0024909672745836893 0.0034028320993549086
96250020 0.0024926319332009834 0.0033758969080021806
96279782 0.0025068537870287615 0.0033369087270132083
96309544 0.0025407105942165326 0.0032846091528982357
96339306 0.0025427206361393513 0.003255742523566776
96369068 0.0025683687623484536 0.0032023643059469276
96398830 0.002629736901304648 0.0031257899451875553
96428592 0.002679968163319027 0.003056538986520836
96458354 0.0027154898708915227 0.002984759140100513
96488116 0.003072820465757786 0.002727252186734399
96517878 0.0027878947349025763 0.00284426526206742
96547640 0.002841858247684067 0.0027555019147218573
96577402 0.002871421473857538 0.0026784055115042526
96607164 0.0029118263119551333 0.002591897714365728
96636926 0.0032255369595015617 0.002278459148164376
96666688 0.002936245860399594 0.002560252150621472
96696450 0.002958473498797976 0.0023075839389172675
96726212 0.0029307151475332733 0.00220911739418752
96755974 0.002668270480570077 0.002292464826477637
96785736 0.0028896825316593205 0.0020020592638508956
96815498 0.002635969006415912 0.002090020091062584
96845260 0.002837906617112476 0.0017906293798487898
96875022 0.00280543484574478 0.0016902051792649572
96904784 0.002777683403664301 0.001584577900747891
96934546 0.0027608390241961 0.0014550657073501892
96964308 0.002725422402925882 0.0013732610028106165
96994070 0.002708537028000902 0.0012816818697271232
97023832 0.0028000331906125383 0.0009333034998022687
97053594 0.002660422796594526 0.0011023532200660673
97083356 0.0026358547716601043 0.0010127351554583281
97113118 0.002514259058361028 0.0011281702384177094
97142880 0.0025818172235485617 0.0008100391243612446
97172642 0.002581687753797715 0.00043224729837076903
97202404 0.002517395243019501 0.0006066907572865447
97232166 0.0024756138850099605 0.00048397179588337746
97261928 0.0024478783816032005 0.0003604109763548325
97291690 0.002394756298171761 0.0002186299818195725
97321452 0.002359735059259767 0.00010034094814617933
97351214 0.0022956993633106238 -3.5707472931923795e-05
97380976 0.0022390734104558332 -0.00016374183586358455
97410738 0.0021784868601196945 -0.0002904672124794673
97440500 0.0020997430552674628 -0.00042581591599754297
97470262 0.0018067496636160604 -0.0007652536188397643
97500024 0.001929870879792627 -0.0006771446282528092
97529786 0.0018466021037324637 -0.0008034608619949837
97559548 0.0014478082833863791 -0.0010887825348885125
97589310 0.0016322512890575474 -0.001063840326698681
97619072 0.0014788323779607263 -0.0011908688519826377
97648834 0.001410425728836426 -0.0012945561879179287
97678596 0.001257563885211709 -0.0014135908600827187
97708358 0.000730898271716374 -0.0015476665595854546
97738120 0.0010049127697952247 -0.0016342192136767169
97767882 0.0008562366729474272 -0.0017363372700896222
97797644 0.0010867614279460635 -0.00181242683469371
97827406 0.0004920343774017652 -0.0018909032564087915
97857168 0.0002763340130431711 -0.0019352431549277294
97886930 5.7780943919221315e-05 -0.0019709621731014253
97916692 0.00031880360681774193 -0.0021745139506524733
97946454 -0.0003515243553849312 -0.0020165417767766393
97976216 -0.00010820551165482362 -0.0022701467192053596
98005978 -0.0012038565055953103 -0.0016040116049551732
98035740 -0.0009881106735502752 -0.001956709481014378
98065502 -0.0011623672556863537 -0.0019642525916377072
98095264 -0.001302130277878741 -0.0020030618710082937
98125026 -0.0014557931311550182 -0.002029713761688195
98154788 -0.0019746520256866836 -0.0014999945810797708
98184550 -0.0017497631696329315 -0.0020871766916862877
98214312 -0.0018836658142276999 -0.0021263955005768474
98244074 -0.002379260664886214 -0.0015017274776766487
98273836 -0.0021594260470964638 -0.002226926400566244
98303598 -0.002309118940435767 -0.0022152805933907897
98333360 -0.0024388105566232865 -0.002246423890017797
98363122 -0.00256861930579779 -0.0022338188487166454
98392884 -0.002713566290986853 -0.0021396920294320288
98422646 -0.002846106185088761 -0.0021253809896779425
98452408 -0.002959950285890495 -0.0020773780504174276
98482170 -0.0030976667932500236 -0.0019668969197215247
98511932 -0.0032020548609608913 -0.0019509628536897809
98541694 -0.0034739194026324567 -0.000991340764757439
98571456 -0.003430969914328248 -0.0017640986045853737
98601218 -0.0032897936043853227 -0.002542667094330669
98630980 -0.0036430170134431478 -0.0016197592541568845
98660742 -0.00375973691425458 -0.0014864899663085327
98690504 -0.0038608861339037505 -0.0004772545339891252
98720266 -0.003890032303519905 -0.0021302592178203306
98750028 -0.004082133942831061 -0.0011251357154418154
98779790 -0.004175483862297091 -0.0009925442264040983
98809552 -0.0042775441126646 -0.0009215152729077658
98839314 -0.00434523848657767 -0.0007355955072436361
98869076 -0.0044358591712497465 -0.0006558083500412747
98898838 -0.004594457451941192 -0.001393466153614558
98928600 -0.004568472572749042 -0.00041577849097711606
98958362 -0.004788904245945438 -0.0012382443127742066
98988124 -0.004736512641979357 -0.00030612378583372784
99017886 -0.004996395876279094 -0.0003658742401746637
99047648 -0.005068668070049327 -0.00037892608837183125
99077410 -0.005128767613412744 -0.00022463232815335329
99107172 -0.005200861169279169 -0.0001290440670219112
99136934 -0.005293761741728721 -0.0001262166195953978
99166696 -0.00525316646731759 1.7636906777178374e-05
99196458 -0.0053766583143742015 7.061696226612625e-05
99226220 -0.00566981066060748 5.1686784418964895e-05
99255982 -0.005502477016566379 0.00010835100821843439
99285744 -0.005448255166913563 0.00030573202578741134
99315506 -0.005514243171265768 0.0002871111754192123
99345268 -0.005548895045236916 0.000319462358381063
99375030 -0.005518913577492073 0.0004915552373686108
99404792 -0.005571875316645314 0.00048196673540648545
99434554 -0.005600661939116442 0.0005268363386094668
99464316 -0.005554347156541415 0.0007475432055712181
99494078 -0.005614534635312314 0.0008385462346477157
99523840 -0.005535871022317545 0.0011043920100772108
99553602 -0.005500209542260895 0.001291821527028826
99583364 -0.005985764682000692 0.0007180859151019374
99613126 -0.004823763674223411 0.0023032873323948016
99642888 -0.005384942828790833 0.0017937131512899378
99672650 -0.0053347736034252335 0.0019505266161439316
99702412 -0.005824636329790202 0.0015011731885768535
99732174 -0.005263170232943999 0.0022055563085340317
99761936 -0.005139799620470153 0.002360846263057846
99791698 -0.0053923746667712495 0.0021347743697401923
99821460 -0.005388479287488601 0.0021865276574774776
99851222 -0.005477264736332991 0.002122227977766084
99880984 -0.006064673692451217 0.0015405352424761706
99910746 -0.005493084243789581 0.0021574215707828213
99940508 -0.0061382432121711294 0.0015015704293825413
99970270 -0.005573549987729542 0.0021416694408471016
100000032 -0.005608364861401888 0.0021336955814250263
100029794 -0.005592148638884637 0.002188804986601186
100059556 -0.005591879228326057 0.002250760289956496
100089318 -0.005580416240256754 0.0023278005119961027
100119080 -0.005577656946737489 0.002387615783239046
100148842 -0.0055578491167738685 0.0024521620820862813
100178604 -0.00556423308253634 0.002512501522359427
100208366 -0.005544318371582615 0.0025652981643969146
100238128 -0.005535316903450155 0.0026347261612387164
100267890 -0.0055294404801424545 0.0026870760848339936
100297652 -0.005516866025547626 0.00273417465970308
100327414 -0.005519486169872071 0.0027797711532826248
100357176 -0.005512540019977526 0.002829029880210925
100386938 -0.005515936168583446 0.0028686080390357173
100416700 -0.005515003596347146 0.002913543841725737
100446462 -0.00551311078918126 0.0029531299355714754
100476224 -0.005508887900809865 0.0029917586116502575
100505986 -0.005504499248192563 0.00303341744556977
100535748 -0.005507428312944786 0.003070949194649977
100565510 -0.005516825541307254 0.0031088810922544965
100595272 -0.005566906308803284 0.0031697075441632205
100625034 -0.005617427349264172 0.0032205796647856843
100654796 -0.0056614489410580565 0.003271277648332451
100684558 -0.005717891885272924 0.0033298276205751447
100714320 -0.005764810824151456 0.003383156381574893
100744082 -0.005823743777554303 0.0034327740930304575
100773844 -0.005910404358480351 0.00345656045178194
100803606 -0.005936008231218828 0.0035368964812206457
100833368 -0.005991006888313877 0.0035849931416521287
100863130 -0.005926969446488601 0.003628879237665418
100892892 -0.00586099476553515 0.003666366569767725
100922654 -0.005801315461050619 0.0037072306091363826
100952416 -0.005746681771239282 0.0037342714495826324
100982178 -0.0056796196843247135 0.0037705984830634118
101011940 -0.005621654480688102 0.0038110222378974806
101041702 -0.0055623963185518896 0.003844969907075874
101071464 -0.00550155819887275 0.0038659151933702427
101101226 -0.005446158164644123 0.003896687973203085
101130988 -0.0054207861911823065 0.00392048860752029
101160750 -0.005412172199906099 0.0039393541049218125
101190512 -0.005402096797180779 0.0039591841628908945
101220274 -0.005395805002775637 0.003978272094981515
101250036 -0.005388705097441779 0.00399650303022249
101279798 -0.0053783595105371985 0.00400580761619947
101309560 -0.005373142223537529 0.004018959619711909
101339322 -0.005365999597657141 0.004034163369364191
101369084 -0.005358003118184647 0.004041657503727977
101398846 -0.0053313363550932516 0.004085668531104651
101428608 -0.005280571745486139 0.004180221982000352
101458370 -0.0052256338944705605 0.004272857851947751
101488132 -0.005173563034807602 0.004359105191649099
101517894 -0.005113852941033923 0.0044521844320693366
101547656 -0.005062982451427323 0.0045379240610907605
101577418 -0.0049992205618577664 0.004625825381493965
101607180 -0.00493407861337175 0.004706452091362486
101636942 -0.004875773383979153 0.0047940169810605495
101666704 -0.004800471423738275 0.004875566299986696
101696466 -0.004873975189075093 0.004816160833179532
101726228 -0.004941889634750382 0.004768498520795878
101755990 -0.005008297764195485 0.004708369776096946
101785752 -0.005079893663544022 0.004647674892846402
101815514 -0.005139766780163495 0.0045859149402570085
101845276 -0.005191860430051223 0.004524399289241782
101875038 -0.005253547333224649 0.00445226934954544
101904800 -0.005310045420681789 0.0043755583164106025
101934562 -0.00535301977783927 0.004304557316307648
101964324 -0.005326864973201855 0.004338596520347453
101994086 -0.005242246542477457 0.0044129506014662576
102023848 -0.005148460681111058 0.004478003834298877
102053610 -0.0050650850685467095 0.004554550818893315
102083372 -0.004983328799888429 0.004617076809606724
102113134 -0.004903481818724357 0.0046801610750534075
102142896 -0.0048110034982551605 0.004742915404444654
102172658 -0.004723188346889742 0.004812534837994609
102202420 -0.004633617801924659 0.004863816521775158
102232182 -0.004604543383502588 0.004911564834574259
102261944 -0.004684618529677638 0.004939113574592801
102291706 -0.0047617358403927446 0.004950818216756418
102321468 -0.0048503315582090365 0.004968682512237056
102351230 -0.004935335129283878 0.004984290324841959
102380992 -0.0050254888764045946 0.005000234139289409
102410754 -0.005121885964151345 0.005013663385718985
102440516 -0.005207844581802404 0.005022233218521584
102470278 -0.005306375667149203 0.005022570939067394
102500040 -0.005407340489505287 0.005033884906175611
102529802 -0.005338156803501639 0.005065390561646993
102559564 -0.00528185692271895 0.00510445219182087
102589326 -0.005232130311679488 0.005134505404659547
102619088 -0.005172846459041415 0.00517341334626247
102648850 -0.005105428497843148 0.00519937377681029
102678612 -0.005045708346993705 0.005235126139888136
102708374 -0.004991022478120582 0.0052608392840035965
102738136 -0.004918983864385141 0.0052859218812078305
102767898 -0.004868634832825091 0.00531964100602658
102797660 -0.004834621823082731 0.005319157552100157
102827422 -0.004810055173580687 0.005296513404879849
102857184 -0.004784875930846334 0.0052788031151557845
102886946 -0.0047660824740144775 0.005257257431611387
102916708 -0.004746448577639384 0.005230939786963573
102946470 -0.004719503615251835 0.005212839768739933
102976232 -0.004700187373512731 0.005189580599285762
103005994 -0.004672836819386055 0.00517720058204398
103035756 -0.004656843340094302 0.0051520448707278454
103065518 -0.004641307206981961 0.005149180611476886
103095280 -0.0046423320730467 0.005182699939603605
103125042 -0.00464010037499367 0.00521291378542103
103154804 -0.00463840333418338 0.0052445310899607725
103184566 -0.004643517704009091 0.005283901757425284
103214328 -0.004645218828853356 0.005310946437009537
103244090 -0.004644372886092875 0.005343680470799339
103273852 -0.004647221300148725 0.005373063161508281
103303614 -0.004651816927408138 0.005402314225411715
103333376 -0.00465084329167479 0.005433749856295865
103363138 -0.004556004299577767 0.005447864418153489
103392900 -0.004464707748429743 0.005458005823965281
103422662 -0.0043726707905995515 0.005475443146681098
103452424 -0.004281507311548522 0.005477753557042218
103482186 -0.004191336128755789 0.00549052665043224
103511948 -0.004109106159914864 0.005487077846686392
103541710 -0.004017657658770827 0.005491113091369727
103571472 -0.003924599290520247 0.005491561346702545
103601234 -0.003842323965154883 0.005496181066548249
103630996 -0.0038427734305811713 0.005486768410383214
103660758 -0.003882222817853943 0.005483490643010232
103690520 -0.0039284923146443345 0.005477116368207312
103720282 -0.003969962659975819 0.0054707233956853
103750044 -0.004008486488341339 0.005458455901546122
103779806 -0.004057000349493253 0.005445010005835678
103809568 -0.004091427616880357 0.005433858118126223
103839330 -0.004134290209627768 0.005422613647184459
103869092 -0.00417709620681312 0.005406708811096626
103898854 -0.004215666004545658 0.005405413728377535
103928616 -0.004253657817640392 0.005424535880128009
103958378 -0.004298647487883379 0.005452926209309943
103988140 -0.004334271322682097 0.005464732850713524
104017902 -0.004373691109710562 0.005490544645276612
104047664 -0.004415779331401421 0.00551667651334508
104077426 -0.00444905009038723 0.005532175739518757
104107188 -0.004494831405881661 0.0055518955099807315
104136950 -0.004541637397483559 0.00557651946181507
104166712 -0.004583678316875449 0.005593667907209195
104196474 -0.004571042897734471 0.00564363709007175
104226236 -0.0045616745891147795 0.005690358121009034
104255998 -0.0045505844600970255 0.005742276850156475
104285760 -0.0045449632793043045 0.005790846155946651
104315522 -0.0045280644300124545 0.005839261626327022
104345284 -0.0045181340086628404 0.005887879397487059
104375046 -0.004505905233429824 0.005939530726786278
104404808 -0.004485397481484903 0.005993869825228767
104434570 -0.004478553339076579 0.0060394166667106335
104464332 -0.004460805088146684 0.006021060789860628
104494094 -0.004445154869098544 0.005967451976847616
104523856 -0.004425537524160886 0.00591293503890455
104553618 -0.004410195236956737 0.005861775771058868
104583380 -0.004395887028739419 0.0058134266578453615
104613142 -0.00438341547239221 0.00576147243248747
104642904 -0.004364924572585618 0.0057103813060399
104672666 -0.004343235057180919 0.005659212167097937
104702428 -0.0043248215524692366 0.005615808562996493
104732190 -0.0043097359277401 0.005606419827917432
104761952 -0.004295175681990487 0.005683445222829607
104791714 -0.004281622613365303 0.005756601670031326
104821476 -0.004262033271915928 0.0058313168998758306
104851238 -0.004248334396505863 0.005912774526739287
104881000 -0.004228704143706851 0.00599196169251554
104910762 -0.0042103806470582825 0.0060702967628511306
104940524 -0.004189198192765442 0.006152518803737908
104970286 -0.004167738356620349 0.006228675962149216
105000048 -0.004134227294491299 0.006316438017172603
