# HZ S RI R 50
90000000 -0.0009599737838142034 0.005517113257361189
90029762 -0.0009337615133613725 0.005551278279108064
90059524 -0.0011801358281708558 0.005579670734784516
90089286 -0.001046393339448764 0.005619646604456813
90119048 -0.0012391350785317464 0.005645759360603584
90148810 -0.0011071139790986694 0.005685416964887754
90178572 -0.0011370803353961075 0.0057172725831256726
90208334 -0.0011173214795555768 0.005752323375484439
90238096 -0.0013732179428834828 0.005775335453530617
90267858 -0.0012366131393197859 0.005821854589954144
90297620 -0.0012335235480062637 0.005801331742840247
90327382 -0.0011504923443373324 0.0057608805755948265
90357144 -0.0012309272233259638 0.005715162239930503
90386906 -0.0010967940844135583 0.005670632386345837
90416668 -0.0012818740387082535 0.0056223929154893505
90446430 -0.001098317851197079 0.005586734760259512
90476192 -0.0010232189528550863 0.005549149382968506
90505954 -0.000999194399641366 0.0055068040229972704
90535716 -0.0010249021940313258 0.005465910726686316
90565478 -0.0009467348736698568 0.005447168454559944
90595240 -0.0009642420278872646 0.005463009577187008
90625002 -0.0009278665522032987 0.0054789199057287
90654764 -0.000842904267820582 0.005494992147965402
90684526 -0.0008098000020690854 0.005511360234800646
90714288 -0.0008224704029928076 0.005526500192105887
90744050 -0.0007864311063956079 0.005542140169191114
90773812 -0.0006874669469295119 0.005553344581374515
90803574 -0.0007119519876145803 0.005569548584838535
90833336 -0.0006297672179358449 0.005583933249156015
90863098 -0.0006065072452407186 0.005562599026489372
90892860 -0.000631779858497768 0.005539728230288234
90922622 -0.0006106093613430667 0.005524480343662289
90952384 -0.0005384809516893553 0.005495111350988405
90982146 -0.0005612517695290451 0.00547285719973669
91011908 -0.0004960454927747606 0.0054531543595391155
91041670 -0.0005178463353486715 0.005431537455645807
91071432 -0.0004951133383179198 0.005407810219890858
91101194 -0.0006017854011510518 0.005391324524059808
91130956 -0.0004460339409431308 0.005400219579208118
91160718 -0.0005211343334777276 0.005433755796993727
91190480 -0.0005529924659420212 0.005465363020049435
91220242 -0.0007146547019075543 0.005498361971031286
91250004 -0.0006230169781066408 0.00552785576546683
91279766 -0.0007882340837940077 0.005557075421731892
91309528 -0.0006531565530361891 0.005591050407403922
91339290 -0.0007337445427274853 0.00562101645790404
91369052 -0.0007323512645835477 0.005651090966443932
91398814 -0.0009289889993970085 0.005660700417005225
91428576 -0.0007986597011101717 0.005638809749028723
91458338 -0.0007532846846569314 0.005616677675728557
91488100 -0.0007930019825053957 0.005592150482769766
91517862 -0.0007896658459791546 0.005568753472805519
91547624 -0.0007461096873249266 0.005544884359626431
91577386 -0.0007436246190094141 0.005519712994234994
91607148 -0.0007785245517351113 0.005496741173495395
91636910 -0.0007736630223872239 0.005475898282998293
91666672 -0.0007327472461077677 0.005452173498796489
91696434 -0.0007011749308429219 0.005473366049104572
91726196 -0.0005922973203874106 0.005492091285413229
91755958 -0.0005204018927359366 0.00551212226394742
91785720 -0.00048257361372752597 0.005526325929327437
91815482 -0.0003740573267657876 0.005542521771628837
91845244 -0.00029847240249119395 0.00555058095847675
91875006 -0.00025856493588115613 0.005567742190553851
91904768 -0.00029275462345640325 0.0055781478219424285
91934530 -0.00010657029911701933 0.0055832767199144135
91964292 -8.255628229027106e-05 0.00560312243775367
91994054 -4.932159674269217e-05 0.005625324332798982
92023816 -0.00019387416619316957 0.005656892296931048
92053578 -8.945680569331937e-05 0.005672871370355451
92083340 -9.405666110511155e-05 0.005699465461119423
92113102 -6.3000414004261e-05 0.005723212336411916
92142864 -0.0001001124703664725 0.005749768236297903
92172626 -6.732950072389451e-05 0.0057736466722133
92202388 -0.00021122523880502122 0.0058045976227502774
92232150 -0.0001147259004211093 0.005799153108329894
92261912 -0.00023605212796592783 0.00574701499746289
92291674 -0.00012061978617563192 0.005696441968283576
92321436 -0.0001711624394656944 0.005646470290781799
92351198 -0.00015678976680650393 0.00559494101617776
92380960 -0.0002024796851735401 0.005543894654578538
92410722 -0.00021579198045933723 0.005497179171245497
92440484 -0.00020193579649318083 0.0054455104136629275
92470246 -0.0002131987166589645 0.0053963031764675
92500008 -0.0002582057489223094 0.005349305726961461
92529770 -0.0002638322405842778 0.005372458747634148
92559532 -0.0002428692166259925 0.0053965487886976325
92589294 -0.000279328009374873 0.005415700233211983
92619056 -0.0002584637337340338 0.005439193893881064
92648818 -0.00026444487161315894 0.005462865563413351
92678580 -0.00030049270130779604 0.00548426747982337
92708342 -0.0002843277961208624 0.0055065740037654855
92738104 -0.0002920696292978469 0.005529361228587606
92767866 -0.0003264389580363012 0.005553199323666951
92797628 -0.00028568225867575355 0.005568383499389986
92827390 -0.00029774251945997307 0.005583171496019795
92857152 -0.00025124911117650083 0.005596894524097222
92886914 -0.00030481081377664983 0.005606534389164188
92916676 -0.00016673064007466484 0.005622716366434913
92946438 -0.00016368068953716918 0.005638649973265327
92976200 -0.00013064945791628713 0.005649045940620343
93005962 -0.00017968204229595777 0.005661264087694978
93035724 -6.725555361699976e-05 0.005676130540610681
93065486 -9.710262848641113e-05 0.005682889220156828
93095248 8.777571114700698e-05 0.005681279460247049
93125010 9.647461000933425e-05 0.0056974274929691504
93154772 0.00026731460619865534 0.0056677681610825025
93184534 0.00023437583635106706 0.005666192348454729
93214296 0.0004217578937850894 0.0056440867062234595
93244058 0.0004003567518214105 0.005644863854552762
93273820 0.0005525002360530467 0.005629794289599871
93303582 0.0006538645566605425 0.005607132394885656
93333344 0.0007095757131067775 0.005606495810118985
93363106 0.0006533683232633619 0.005616036699342822
93392868 0.0006067581148909648 0.005617410846027436
93422630 0.0005495831671422035 0.005625567864244725
93452392 0.0005146971027945144 0.005629253270706517
93482154 0.0004367193408260637 0.005636395100344879
93511916 0.00040164369698441054 0.005641013422698668
93541678 0.0003431654471251507 0.005643599836483475
93571440 0.00026343530917261125 0.00564209655148864
93601202 0.00022785787395441457 0.005639770952754105
93630964 0.0002490690591353093 0.005640038463770184
93660726 0.00025527712569158 0.005642071406995337
93690488 0.0003706718653584783 0.005636353204829561
93720250 0.00040820960845297256 0.005632042741626194
93750012 0.00046654905515539454 0.005627486339086191
93779774 0.0005486025544536657 0.0056242058497293435
93809536 0.0005316012694017494 0.005616049565241234
93839298 0.0006506956475795676 0.005609955736091614
93869060 0.0007104770033680197 0.005602749861208766
93898822 0.0007761916894717107 0.005589190865734421
93928584 0.0007776782266099013 0.005572928553437434
93958346 0.0008133953587436884 0.0055550077813574265
93988108 0.0007631817190652244 0.005539345992684411
94017870 0.0008322757477434193 0.005518554542054143
94047632 0.0008017208579227293 0.005503309813583438
94077394 0.0008857554241801513 0.005482617709718177
94107156 0.0008897204946249411 0.005468401523372646
94136918 0.0009236614493589862 0.005444760416756522
94166680 0.0009263075470968432 0.005429828556574751
94196442 0.0009367634527908915 0.00570042398025796
94226204 0.0008906151765297405 0.00600367533618639
94255966 0.0009565458133194862 0.00633344188155264
94285728 0.0009244917522583817 0.0067092284651827485
94315490 0.0008976499808431723 0.007124233812737715
94345252 0.0008633246527195699 0.00759868623221363
94375014 0.0007663480870876812 0.008132079901360858
94404776 0.000669202704089297 0.00874017310754654
94434538 0.000494653321503012 0.009443140723216123
94464300 0.0005319179364825331 0.009166299908643564
94494062 0.0007032401095335223 0.008457214257115386
94523824 0.0008134911103749568 0.007841761835995453
94553586 0.0008821682646749077 0.007303296459903946
94583348 0.0009590866044100867 0.006825995983770463
94613110 0.0009876090432829382 0.0064043676653618075
94642872 0.0010237072007094788 0.006026134183308694
94672634 0.0010604257959560674 0.005686006217564207
94702396 0.0010753110563673444 0.00538076108790513
94732158 0.001081611077062402 0.00517519589940553
94761920 0.0011080220088065375 0.0051213106557734395
94791682 0.0011027533617587984 0.005068717823025794
94821444 0.0011511449121273313 0.005013289866691793
94851206 0.001146297947883206 0.004963433308165521
94880968 0.001208926629755596 0.004907345306027656
94910730 0.001221572586345666 0.004857725497107985
94940492 0.0012531253888842808 0.004802880457401387
94970254 0.0012458141069971993 0.00475450329029314
95000016 0.0012892052560980695 0.004699788473316107
95029778 0.0012776956484814243 0.004712159784850719
95059540 0.0013140394008001662 0.004724519640979807
95089302 0.0013263304985813257 0.004737808463736744
95119064 0.0013478883880636656 0.004747858477348137
95148826 0.001332054169460875 0.004760550688176717
95178588 0.0013634275608259395 0.004771501826900828
95208350 0.0013778675472294393 0.004784892146602382
95238112 0.0013819474093534063 0.004799357377996738
95267874 0.001423037372397783 0.0048019631968226565
95297636 0.0014155829202005543 0.004796596294212552
95327398 0.0014754349578774166 0.0047770184837554585
95357160 0.001464861514265389 0.004766537999544488
95386922 0.0015306218746948337 0.004738323451312751
95416684 0.001526428743546342 0.00472541158741855
95446446 0.0015814171593615763 0.004699772354935687
95476208 0.0015812888920368208 0.004686979695363351
95505970 0.001624987352977313 0.004659537065672878
95535732 0.0016507316793098142 0.004638190149196033
95565494 0.001692112805728995 0.00460756948166432
95595256 0.0017457790081865457 0.004575553047823086
95625018 0.0017999588928362046 0.004540565178403667
95654780 0.0018516644072599853 0.00450148434568942
95684542 0.001913687487702051 0.004464099720634624
95714304 0.0019635132894846308 0.004424425693411795
95744066 0.0020191427689593587 0.004381012516615277
95773828 0.002064124472584777 0.004339552334411644
95803590 0.0021252590254774383 0.00429403694361969
95833352 0.0021762818126031176 0.004246860469999868
95863114 0.0022024638257002933 0.004170027202786278
95892876 0.002220939244634463 0.004094012332375979
95922638 0.0022358824346425965 0.004018578812444557
95952400 0.0022556852736802333 0.003942815697672573
95982162 0.002275272126631187 0.0038655079684196533
96011924 0.001934817685908455 0.0038583491406382793
96041686 0.0023084807029680613 0.003706803785247994
96071448 0.0023270855955807176 0.0036270321476176205
96101210 0.002355421767807797 0.003542775076061619
96130972 0.00202394970096564 0.003580301305154628
96160734 0.0023985096690524363 0.0034509770272282835
96190496 0.0024480786445397274 0.0033918631723429023
96220258 0.0024565432760590682 0.003364607459002081
96250020 0.0024431242415815847 0.003343296762747834
96279782 0.002510638621783069 0.003269986634139977
96309544 0.002523529676245366 0.003223283436476686
96339306 0.0025662073095987473 0.0031670430552448985
96369068 0.0025903333501692827 0.0031156685430563384
96398830 0.0026248269714139205 0.0030539384478912805
96428592 0.0026570224415751087 0.002984376082934757
96458354 0.0026999150685695396 0.0029157879777743515
96488116 0.0030449639334092214 0.0026493323000311045
96517878 0.002781533632773323 0.0027574434837839405
96547640 0.002813928765795314 0.0026790069182845463
96577402 0.002846861960711643 0.0025942740487703477
96607164 0.0028842573059535506 0.002508422302051727
96636926 0.0031763596725957587 0.0021990065177141076
96666688 0.0029325662510255013 0.0023286704201859443
96696450 0.002909366281611494 0.002226718664912429
96726212 0.002901558045188627 0.002099336050114118
96755974 0.0026330895206466195 0.0022043695864641137
96785736 0.0028397667728029333 0.0019188417070335037
96815498 0.002596622144174477 0.0020016162600692408
96845260 0.0027795544134790874 0.001710878879948708
96875022 0.0027460832915990304 0.0016051956715914194
96904784 0.0027044124302259037 0.0015031609893978054
96934546 0.002683480288532594 0.0013828767722813755
96964308 0.0026495138201669847 0.0012977266179207427
96994070 0.0026251645922168313 0.0012146829715299185
97023832 0.002696419551672036 0.0008646651329355614
97053594 0.002571167781988315 0.001031377493862575
97083356 0.0025433649707237924 0.0009384383162843917
97113118 0.0024330993357864206 0.0010498307166566148
97142880 0.002482321000445244 0.0007364167385874633
97172642 0.0024515923626155234 0.00037985566664083657
97202404 0.0024004700548918706 0.0005479709794177079
97232166 0.002356054076655037 0.0004332814528278437
97261928 0.0023203466066049855 0.00031197277061781114
97291690 0.00227743779762189 0.00018325819526163805
97321452 0.002219081846467383 6.182654708611813e-05
97351214 0.0021597084226739256 -5.372773131028054e-05
97380976 0.0020928638433133375 -0.00018472227887204252
97410738 0.0020253062075821586 -0.0003135117798040574
97440500 0.0019425654542098941 -0.00042913553780194705
97470262 0.001653554494241795 -0.0007355683843612878
97500024 0.0017703045395670812 -0.0006725474734739705
97529786 0.0016870974934433912 -0.0007817865303331817
97559548 0.001312645294420592 -0.0010337669690078535
97589310 0.0014718437628657847 -0.0010203056923010951
97619072 0.0013316422405323502 -0.0011477406096962834
97648834 0.001249373734803349 -0.001236447841777982
97678596 0.001110755674914049 -0.001338600150824498
97708358 0.0005996274332178466 -0.0014297228325373648
97738120 0.0008469828422004381 -0.0015353776424800298
97767882 0.0007000596751998824 -0.0016277181403421192
97797644 0.0009174398618439486 -0.0017191659050680938
97827406 0.00036875136071748974 -0.0017623347857481063
97857168 0.0001523595650660009 -0.0018006295387440084
97886930 -4.768928812685801e-05 -0.0018331126295844937
97916692 0.0001860095979950427 -0.002018681449142033
97946454 -0.00043253485960952244 -0.0018563700890572945
97976216 -0.00021321973979401086 -0.002097137567381197
98005978 -0.0012102425284098532 -0.0014390023790451345
98035740 -0.0010164276169552647 -0.0017848064356029431
98065502 -0.0011693110804853303 -0.0017891946505732938
98095264 -0.0013042128193974582 -0.0018288665789504928
98125026 -0.00146380978064738 -0.0018368683434005545
98154788 -0.001986266096487683 -0.0013325125625077107
98184550 -0.0017603620252178793 -0.0019189395523984746
98214312 -0.001892777632783167 -0.0019543650773147293
98244074 -0.002347556994707229 -0.0013559607309849046
98273836 -0.0021194854940567104 -0.0020350266016108233
98303598 -0.0022542929702745124 -0.002026358980133339
98333360 -0.002382449804906058 -0.0020663766882154156
98363122 -0.0025091984937210894 -0.0020704401508366854
98392884 -0.002633506031209642 -0.0019731061446318734
98422646 -0.0027505542652619093 -0.0019843408557758367
98452408 -0.0028634384754429093 -0.0019364118745965764
98482170 -0.0030059127535542038 -0.0018212172302566445
98511932 -0.0030974068259835767 -0.0018200128665738044
98541694 -0.003355265965651343 -0.0009172823750359556
98571456 -0.0033172513284043985 -0.0016599583893221782
98601218 -0.003183308899727073 -0.002409791276054376
98630980 -0.0035218008101360124 -0.0014953606936212022
98660742 -0.0036458050176469536 -0.0013987677273905688
98690504 -0.0037627567731139074 -0.0004359102042536922
98720266 -0.003761496074371063 -0.0020347008206951203
98750028 -0.003961751594521 -0.0010598527308171843
98779790 -0.004055069589154946 -0.0009483913686871777
98809552 -0.004139778446325614 -0.0008974837960575683
98839314 -0.004222998976736528 -0.0007114766462539401
98869076 -0.00430502132783576 -0.0006357711898511601
98898838 -0.004458386498618361 -0.00135209591361917
98928600 -0.004452653310188299 -0.00040325388823445524
98958362 -0.004653751968554769 -0.0012188720461525308
98988124 -0.004623974618664553 -0.00031877121523277727
99017886 -0.004698426500865741 -0.0001703354036262049
99047648 -0.004756224342760196 -0.00017423172770631757
99077410 -0.0048159332966273396 -3.109296464847456e-05
99107172 -0.004888764974624494 3.80160998397173e-05
99136934 -0.004962435878646948 4.7725487199357864e-05
99166696 -0.005041435001926572 0.0001122700590169568
99196458 -0.005020784774235416 0.0002530088716867792
99226220 -0.0050949490523814955 0.0002662784907207965
99255982 -0.00512577983596806 0.00027706708150002513
99285744 -0.005362309872079763 0.0006502168447072251
99315506 -0.00516292672664454 0.0004255060055422409
99345268 -0.005274329324968026 0.0004062209022723437
99375030 -0.0052531886525621786 0.0005133884898121992
99404792 -0.00526092679810973 0.0005587563705104834
99434554 -0.005259358008547241 0.0006257897265970537
99464316 -0.005252527639344061 0.0008071129032638293
99494078 -0.005285580296800502 0.0009009080134620247
99523840 -0.005229205273180567 0.0011357641117037364
99553602 -0.005204820125483151 0.0013105513339965943
99583364 -0.005654378702415885 0.0007542208576288792
99613126 -0.0045811963460679495 0.002261416426404253
99642888 -0.005109197356563773 0.0017708331744551284
99672650 -0.0050406215669627575 0.0019486618988168016
99702412 -0.005543129649820214 0.001454352214417977
99732174 -0.005039515506766244 0.0021172298871769456
99761936 -0.004896369330229209 0.0022893043728708265
99791698 -0.0051350392240202694 0.002086584277112335
99821460 -0.00512629517407139 0.0021234926722124773
99851222 -0.005221584711838898 0.0020547395654293863
99880984 -0.0057485926556616485 0.0014836232557945768
99910746 -0.005240314113494667 0.002087249662610599
99940508 -0.005836293654169446 0.0014434267544133465
99970270 -0.005315461289214355 0.002057147805789019
100000032 -0.0053492500853872344 0.0020549446430449727
100029794 -0.005348434542558002 0.0021044754726057624
100059556 -0.005380235314497956 0.002143185994572026
100089318 -0.00537608393119771 0.002211901737298532
100119080 -0.0053382172677872534 0.002284200786998587
100148842 -0.005307697010978845 0.002369820576467223
100178604 -0.005338147368516767 0.0023990327409576877
100208366 -0.005323541859754372 0.0024604482155988192
100238128 -0.005312805440195288 0.0025153230850268903
100267890 -0.005337911272396065 0.0025599724513966737
100297652 -0.005309721566246558 0.0026134542500318068
100327414 -0.005316036891609665 0.0026527477560802024
100357176 -0.005314917470237474 0.002704553170798076
100386938 -0.005310769323527928 0.0027368118722145324
100416700 -0.005311585750282707 0.002780934035289354
100446462 -0.005316759785486095 0.002819014106993548
100476224 -0.005324071269559519 0.002851762772530507
100505986 -0.005322284059463804 0.0028952864067258517
100535748 -0.005325875483958263 0.00293570998054071
100565510 -0.005339120839204984 0.0029710227408840766
100595272 -0.00538692310325517 0.003023191562264738
100625034 -0.0054335165961915885 0.003076300773208572
100654796 -0.005484592152252724 0.0031190357552288712
100684558 -0.00554355523433244 0.00317962075046898
100714320 -0.005594058640280507 0.003227249797476984
100744082 -0.00564692808358212 0.003272912993266548
100773844 -0.005704420767423968 0.0033150121494089925
100803606 -0.0057667384250743815 0.0033733862522827627
100833368 -0.005825293299622454 0.0034183675252071853
100863130 -0.005761588422879888 0.0034582007640936324
100892892 -0.005714098939975198 0.0034904124024843068
100922654 -0.005653407944462076 0.0035294514793836524
100952416 -0.0056029197037319916 0.0035659634904133715
100982178 -0.005543380167115213 0.0036023145176327658
101011940 -0.005492617300903328 0.0036288936312024412
101041702 -0.005436674951365741 0.003668366268374112
101071464 -0.0053817121736281 0.0036976333674654457
101101226 -0.0053310137560821464 0.003717206823473339
101130988 -0.005302470934188611 0.003739319865997147
101160750 -0.005293085067673309 0.003766446948474426
101190512 -0.0052966933405542965 0.003779014258147073
101220274 -0.005294231350475806 0.003798631157008138
101250036 -0.0052824227363628545 0.003804693580517607
101279798 -0.005280796273483713 0.0038296136789443672
101309560 -0.005274108663756483 0.0038417833684696715
101339322 -0.005269974992099707 0.003860931877916337
101369084 -0.005270228163967925 0.003871105284370665
101398846 -0.00524808537121831 0.003905556265054176
101428608 -0.0051994629315011975 0.003998245456452931
101458370 -0.005150482277344308 0.004088173790345235
101488132 -0.005105729044943845 0.004183852901794591
101517894 -0.005052452884746667 0.00426757365819367
101547656 -0.005008062151790501 0.004352509206363389
101577418 -0.004944156548978777 0.004441535571888362
101607180 -0.004887802429658858 0.004518698596209636
101636942 -0.004828993167837232 0.0046061730820668445
101666704 -0.004767567627985911 0.004684524567333439
101696466 -0.004836870820491034 0.004638382583196037
101726228 -0.004898383368783104 0.004588400485493866
101755990 -0.004966683481005751 0.0045318510793377125
101785752 -0.005034252790263795 0.004469266038816075
101815514 -0.005096677634953067 0.0044051638228279595
101845276 -0.005157668021209651 0.004344120006297956
101875038 -0.005211998649491378 0.004278027024720197
101904800 -0.005264476521186484 0.004201185264899146
101934562 -0.0053273835423725225 0.004126903847455176
101964324 -0.00528837124077234 0.0041567566372457425
101994086 -0.00520844151342058 0.004238357284223399
102023848 -0.005116078468016447 0.004368227466008615
102053610 -0.004883096782544397 0.004443115084274071
102083372 -0.004959503322519688 0.004512073306244406
102113134 -0.004939727380642235 0.004568440180326388
102142896 -0.004797817705313181 0.004638610990649621
102172658 -0.004709902686877081 0.00470033840371805
102202420 -0.004685446406354194 0.0047496697032529955
102232182 -0.004590106962925341 0.0048036743897497255
102261944 -0.004670313986369426 0.004828054129899701
102291706 -0.004757675240757236 0.0048470132073862434
102321468 -0.004744665594377006 0.0048496854707328375
102351230 -0.0049914969640629595 0.004882059537620093
102380992 -0.004954910704570679 0.004893653779897194
102410754 -0.005111365094821529 0.0049060844083768105
102440516 -0.00520170100582486 0.004915269645526687
102470278 -0.00530150733242807 0.0049138970254151
102500040 -0.0054057058837012565 0.004918982976226353
102529802 -0.005339180244008444 0.004954357273528623
102559564 -0.0052855995455572185 0.004994397983790014
102589326 -0.005226109635911102 0.005027197067297729
102619088 -0.00517269298422346 0.0050619421445790925
102648850 -0.005113914250589153 0.0050928814248321266
102678612 -0.00499066740216322 0.005122106182666369
102708374 -0.005001873918277746 0.00515493652386191
102738136 -0.004941632836304685 0.005178168136364453
102767898 -0.0051094756759013475 0.0052425123625537045
102797660 -0.0048502363511156435 0.005206437054349435
102827422 -0.004832560955631874 0.005192839596253593
102857184 -0.004805569470201423 0.0051720707066212545
102886946 -0.004784173260021635 0.0051546919235436915
102916708 -0.004763742923592644 0.005137442393290331
102946470 -0.004744228651940791 0.005117527003700159
102976232 -0.0047232492738816575 0.005096345702784544
103005994 -0.004699486134978174 0.005077738150526141
103035756 -0.0046779384351374785 0.005055199758610666
103065518 -0.004662972588709401 0.005050936913239668
103095280 -0.00466552296962584 0.005092103775973245
103125042 -0.004669009741722754 0.005118127767249249
103154804 -0.00467380756350166 0.0051553316153345905
103184566 -0.004672898234561506 0.005185987036028662
103214328 -0.004675527670110899 0.0052151398314102945
103244090 -0.0046768791862543966 0.005251664458130716
103273852 -0.004683992422029689 0.005279189177888095
103303614 -0.004683378142196629 0.005308517566263904
103333376 -0.004684646097671442 0.005348564624522795
103363138 -0.004593084965745637 0.005365353335786319
103392900 -0.004507649149451366 0.005377258893062533
103422662 -0.004417626740906096 0.005387556447128936
103452424 -0.00432624133210754 0.00540177160264831
103482186 -0.004232759788529355 0.0054075307783239025
103511948 -0.004148593004501955 0.0054136592865591995
103541710 -0.004064231171658262 0.00541719688885461
103571472 -0.003975663243716238 0.0054172778421861575
103601234 -0.0038916624242352487 0.005425115619208764
103630996 -0.0038940095067262694 0.005415978179103119
103660758 -0.0039366517515117645 0.005412245099257221
103690520 -0.003975855134825927 0.005402651712499106
103720282 -0.004022955943627866 0.0053966863359657564
103750044 -0.004061037598639096 0.005390171202111095
103779806 -0.004102409847222918 0.005375830861824247
103809568 -0.004141167158856981 0.005363873776999627
103839330 -0.004184840956196994 0.005355967067001473
103869092 -0.004229075580340366 0.005338383080989106
103898854 -0.004268242526380554 0.00534265681712445
103928616 -0.004304897973941609 0.0053625434498947916
103958378 -0.004347050125499061 0.0053878723082210235
103988140 -0.004384438810298071 0.005404938275596443
104017902 -0.004423269350639425 0.005429119525602424
104047664 -0.004467054836811337 0.005451879540311135
104077426 -0.00451051514987002 0.005474090082770199
104107188 -0.004550971884625668 0.0054928825347927805
104136950 -0.004598402133560385 0.0055135309190866314
104166712 -0.004647009768587411 0.005537334909794512
104196474 -0.004631569126724146 0.005583686419637952
104226236 -0.004623984057874658 0.005636362307998335
104255998 -0.004615323675474185 0.005683601331688157
104285760 -0.004607145372859005 0.005734107533769315
104315522 -0.00459316141569151 0.005789678963811171
104345284 -0.004582797916871376 0.005837393264180578
104375046 -0.004567304704636738 0.005890183930878258
104404808 -0.004554837450991762 0.005945501686745744
104434570 -0.004540764022183976 0.005994954288291087
104464332 -0.004530175067983716 0.0059781710970551825
104494094 -0.004514612407034543 0.005921641237021319
104523856 -0.0044924238028842545 0.005873474616612582
104553618 -0.00448145722265288 0.005824810086202874
104583380 -0.004462028333964552 0.005773847079246524
104613142 -0.004448138453700346 0.005719996383082638
104642904 -0.0044303858699996325 0.005673214952420877
104672666 -0.004404504294238631 0.005623065699499911
104702428 -0.004359453255380028 0.005581043352402863
104732190 -0.004343960651596394 0.005575438113294044
104761952 -0.004327670383422677 0.005645857894575382
104791714 -0.004313024793483631 0.005726732738427068
104821476 -0.004300899949944112 0.005807828169830278
104851238 -0.004284729695077495 0.005884726516271428
104881000 -0.004263346467958291 0.005965312538227584
104910762 -0.004242858851245783 0.006041805702814606
104940524 -0.004252765940035061 0.006128569075749524
104970286 -0.004233272708354252 0.00620972533779894
105000048 -0.004206669042003657 0.0062918048713702015
