# HZ S RI R 50
90000000 -0.0009578889989589512 0.005516078316627238
90029762 -0.0009328100779263181 0.005552708940205401
90059524 -0.0011799281432664534 0.005578998167102228
90089286 -0.0010435949461150586 0.005616593577276695
90119048 -0.0012406187579033382 0.005645360798851119
90148810 -0.0011051989507018455 0.005685576477348861
90178572 -0.0011908337961204869 0.005722487030397843
90208334 -0.001115294631069174 0.005753714951861993
90238096 -0.0013704810729547533 0.005778587648039957
90267858 -0.0012382561452937355 0.005817041947400021
90297620 -0.0012295161612429439 0.00580295761154606
90327382 -0.0011860926555478995 0.005761285485869909
90357144 -0.0011765007533088953 0.005716059151207315
90386906 -0.0010995130610329561 0.005674687850509615
90416668 -0.0012797288757628407 0.0056227674107667555
90446430 -0.0010970404367218478 0.005588279768646184
90476192 -0.0011081548954053953 0.005553352140532387
90505954 -0.0009958241341727658 0.0055080683664889725
90535716 -0.0010203789644350502 0.005466861670536219
90565478 -0.0009464836450843642 0.005446463790529008
90595240 -0.001044632260858393 0.005465937344598601
90625002 -0.000924632857516724 0.005479012576339053
90654764 -0.0008438800695008549 0.0054948524859910475
90684526 -0.0008088786650068549 0.005509340282599209
90714288 -0.0008186543372053205 0.005523670319904516
90744050 -0.0007833023642680797 0.005540314227719821
90773812 -0.000700822654246119 0.005556349406653947
90803574 -0.0007111547964115012 0.005569814829551515
90833336 -0.0006277901587861084 0.005582282106507083
90863098 -0.0006050621264759672 0.005562086860235589
90892860 -0.0006269022206708375 0.005539553151281526
90922622 -0.0005769072101977944 0.005518824092210481
90952384 -0.0005357467495795592 0.005496196985944502
90982146 -0.0005581958317385052 0.0054756967104474825
91011908 -0.0004913911000354324 0.005453154589889057
91041670 -0.0005156281472194045 0.0054297845356395275
91071432 -0.0004937838208696042 0.005410632352181657
91101194 -0.0006492689711690057 0.005398955455481257
91130956 -0.00044328448823640287 0.005400965181305294
91160718 -0.0005181572745606273 0.005434903331976255
91190480 -0.0005494836933362965 0.005460766062398341
91220242 -0.0007117373256723094 0.005496322920063159
91250004 -0.0006212396664777674 0.005526333595803574
91279766 -0.0007824149776043073 0.005556616483861292
91309528 -0.0006533792357865659 0.005588589789811416
91339290 -0.0007325718681950598 0.00561926906843803
91369052 -0.000730524648782262 0.00565286204794052
91398814 -0.0009244312324577095 0.005660269042614117
91428576 -0.0007959912210480445 0.0056394703405835645
91458338 -0.0007523009501434854 0.005616412142363213
91488100 -0.0007890999637130036 0.0055920094063441304
91517862 -0.0007871546558274143 0.005566669444457366
91547624 -0.0007438521969607648 0.005544345171678248
91577386 -0.0007398311303965114 0.0055219220284495095
91607148 -0.0007766292434033029 0.005497433665838664
91636910 -0.0007737429980113285 0.005475268578375266
91666672 -0.0007296157382382998 0.005451921161406708
91696434 -0.0006982779607978352 0.0054709975964578605
91726196 -0.0005882919120549022 0.005490374802533304
91755958 -0.0005162416966506885 0.005510398166731557
91785720 -0.0004801652942928676 0.0055248358993282825
91815482 -0.00037110354790309953 0.005539353185091803
91845244 -0.0002936914630034803 0.005551209897511581
91875006 -0.0002575377171477292 0.005564765278296165
91904768 -0.00028796994486939774 0.005579018145095904
91934530 -0.00010416977050590581 0.00557925196870536
91964292 -7.908637684464805e-05 0.005600201854842397
91994054 -4.7085185261198046e-05 0.005623947048091498
92023816 -0.0001910906499434778 0.005655022448368239
92053578 -8.804751957613763e-05 0.0056715766442057974
92083340 -8.876719581402396e-05 0.005697206264875676
92113102 -6.121814819040244e-05 0.0057199143176547475
92142864 -9.639889188286995e-05 0.005750461353448597
92172626 -6.439965352660313e-05 0.005772590337945223
92202388 -0.00020624938890446938 0.005801584198942554
92232150 -0.00011219530852790539 0.0057965057828653155
92261912 -0.00023218811912569632 0.005748964267561437
92291674 -0.00011593626773475224 0.005694435457088165
92321436 -0.0001670139911524536 0.0056437653197112655
92351198 -0.00015070027606244241 0.005593475667833253
92380960 -0.00019847522250451548 0.005542293314912168
92410722 -0.00021110576912078277 0.005491253102656738
92440484 -0.00019720223407147997 0.005445547737629812
92470246 -0.0002113199220752158 0.005397265353983085
92500008 -0.00025121095988686165 0.005345018654253173
92529770 -0.00026016896078245974 0.005369727527058125
92559532 -0.00023824732050554986 0.005393056278727559
92589294 -0.0002758032866753495 0.005416465811249637
92619056 -0.00025348840946380884 0.005437411452867335
92648818 -0.00026296113644200573 0.005462353874472595
92678580 -0.00029776231739664914 0.0054828448527518715
92708342 -0.00027894130604238994 0.005504063485721819
92738104 -0.0002864869812009692 0.005526957103629958
92767866 -0.00032350554986762845 0.005550286274142736
92797628 -0.00027915617395406575 0.005569205572553793
92827390 -0.0002763651062951331 0.005578883648813154
92857152 -0.00024808984147218236 0.005592684891972039
92886914 -0.00030140674024917787 0.005605879751306044
92916676 -0.00016056991099064582 0.005618654694143543
92946438 -0.00015678209083006068 0.0056349488566535995
92976200 -0.0001254817846628159 0.0056476190546923336
93005962 -4.521525137822247e-05 0.0056223433727761825
93035724 -6.332115811800339e-05 0.005671373633018462
93065486 -9.073390401738616e-05 0.005679505715648016
93095248 9.353521699272674e-05 0.005679420785441049
93125010 0.00011851474540576613 0.0056862565513367885
93154772 0.00021040721000920734 0.005687631692054052
93184534 0.00025748780038034586 0.005659770976532423
93214296 0.0003959872403151892 0.0056518382317815264
93244058 0.00042189022011408545 0.005639710410829565
93273820 0.0005751694168840031 0.005616428695668378
93303582 0.0006563487160914777 0.005607217634822461
93333344 0.0007764997810266813 0.005575861081958899
93363106 0.0006895552718328085 0.0055997168122736765
93392868 0.0006132523532766626 0.00561330603428211
93422630 0.000555973095940829 0.005620653800884509
93452392 0.0005213364802358372 0.005626145439834393
93482154 0.0004421904471272186 0.005633901725786697
93511916 0.000423543917997287 0.005630027593506663
93541678 0.00035041721562242 0.005639160481160218
93571440 0.00027158789203706563 0.005638405082132811
93601202 0.00023805217656505266 0.005636834968235971
93630964 0.0002568687629089491 0.005635600513502535
93660726 0.0003435807171014489 0.005613501522039233
93690488 0.00037560356203034513 0.00562905089483487
93720250 0.0004328464681441548 0.005628520983540638
93750012 0.0004756167814193399 0.005624634627234155
93779774 0.0005551170624656452 0.005616893906515248
93809536 0.0005377291483840546 0.005612260013873397
93839298 0.0006576436840397571 0.0056058741618318746
93869060 0.0007197441204356803 0.005597698186161858
93898822 0.0007859699681395625 0.0055858559965969515
93928584 0.0007832008848012644 0.005568781941199503
93958346 0.0008202419989740083 0.005549874286263409
93988108 0.0007839377157130074 0.005532897333774058
94017870 0.0008414956135207015 0.005513014501912745
94047632 0.0008273490668323101 0.00549411825035857
94077394 0.0008950300576243945 0.005478312185019255
94107156 0.0009147529900849417 0.005455637481467221
94136918 0.0009335487453153227 0.005439270934225386
94166680 0.0009346113853625324 0.005423015983407333
94196442 0.0009464335739234143 0.005696826721234261
94226204 0.000903167701884261 0.005994629720656025
94255966 0.0009697417469872766 0.006328249210326927
94285728 0.0009386216381374213 0.0067017972401216515
94315490 0.0009089306672674267 0.00711815028038224
94345252 0.0008781401732695795 0.007592523164775422
94375014 0.0007821671570175419 0.00812265728685769
94404776 0.0006866199547059486 0.0087392865064993
94434538 0.0005122758756405889 0.009439665453225096
94464300 0.0005469988850721255 0.009156641626868666
94494062 0.0007247746184637753 0.008447936597704328
94523824 0.0008334668072510467 0.007834310804157571
94553586 0.0008970799169871306 0.007292480678457105
94583348 0.0009749794476198078 0.006822714261871581
94613110 0.0010046711529820476 0.0063992298485685195
94642872 0.0010393035870296737 0.006022179785935998
94672634 0.0010735400021028335 0.005681462262550325
94702396 0.001087698459180196 0.0053752734168582336
94732158 0.0010977091564610797 0.005168348514155959
94761920 0.0011186968745091526 0.0051132582838235635
94791682 0.0011123258496660035 0.00506328971282014
94821444 0.0011675001196788965 0.0050097813420633555
94851206 0.0011614053344894384 0.004955947140806993
94880968 0.0012207082508912807 0.004902193633275212
94910730 0.00123688996939817 0.004850067573410727
94940492 0.0012671947423305919 0.004796257648828763
94970254 0.0012593566723394073 0.004747286350971136
95000016 0.0013035309307477788 0.004693217387716082
95029778 0.001294905165933537 0.00470600115368735
95059540 0.001329062745972811 0.004717265674226084
95089302 0.0013418468242177009 0.0047316582862736755
95119064 0.0013617633114844671 0.004742990066502478
95148826 0.001347794728290743 0.00475706497394283
95178588 0.0013817627703911872 0.0047669549901114185
95208350 0.001397279771442009 0.004778434206360883
95238112 0.0014138867436029054 0.004788545479023242
95267874 0.0014233559092330453 0.004797888227725333
95297636 0.0014511778137714898 0.004788196960620638
95327398 0.00147813561731668 0.004773760430228067
95357160 0.0014997555699327377 0.004754180198157056
95386922 0.001537021409451611 0.004735430494325333
95416684 0.0015646312192224882 0.0047181715125998456
95446446 0.0015864819376821258 0.004696496351918971
95476208 0.001623291188161304 0.004671862182862417
95505970 0.0016491254997343865 0.004649398478064673
95535732 0.0016789292432711897 0.004629994379936883
95565494 0.0017173725284177492 0.004603094170604438
95595256 0.001771696579858109 0.004566256898265413
95625018 0.0018272221084528874 0.0045298266818634735
95654780 0.0018852698058697093 0.0044925882540981284
95684542 0.0019376294312362882 0.004452878104139495
95714304 0.001993678675995262 0.004412040462228796
95744066 0.002050909857434894 0.00437087748311232
95773828 0.0020974419820389057 0.00432746663565091
95803590 0.002156868424479337 0.004282138568469981
95833352 0.0022095317393517264 0.004234333544626148
95863114 0.002234234592513509 0.004156876391404817
95892876 0.0022548033390716086 0.004080970686894182
95922638 0.002276749917249444 0.0040006884102181135
95952400 0.002294741445588102 0.003921088980034345
95982162 0.002312518509260917 0.0038480864320593355
96011924 0.0019721461638312118 0.003840089650945208
96041686 0.0023559938456128226 0.0036832939773369495
96071448 0.0023386914090389108 0.00362358716891035
96101210 0.002388432134790559 0.003526352475778046
96130972 0.002069699032820225 0.0035592807044962857
96160734 0.002482095897106557 0.0034026353545293046
96190496 0.002455437272864301 0.0033893848238859573
96220258 0.0024634112143003865 0.003370316800958884
96250020 0.0025404775804493255 0.003281991848698935
96279782 0.0025656260779381096 0.0032389420158629592
96309544 0.002590873246708523 0.0031839442841885093
96339306 0.002591782583074809 0.0031496383326822066
96369068 0.0026480435136646985 0.0030725046250741094
96398830 0.002687193153772856 0.0030088667279684293
96428592 0.002773125401968176 0.0028924689120005467
96458354 0.002763165738474015 0.0028637221194317865
96488116 0.003108415554700136 0.002592982826310011
96517878 0.0028409854086993112 0.002699092388169053
96547640 0.0028769762583649794 0.0026125767377656404
96577402 0.0029167017778120538 0.002534011534538374
96607164 0.0028933503765274263 0.0024872259561063907
96636926 0.003244200985001967 0.002112062449269945
96666688 0.003004106930087188 0.002252493970777703
96696450 0.002982888875324096 0.0021408433811641527
96726212 0.0029516137411890212 0.0020465779818848763
96755974 0.002704289093374632 0.0021319742289126666
96785736 0.0029015660673892742 0.001829108562626282
96815498 0.00266629855203034 0.00192745244276017
96845260 0.0028333894923334175 0.001614795997248832
96875022 0.0028071863454732365 0.0015033051881894548
96904784 0.0027717185781110532 0.0013996962029758126
96934546 0.0027464399635667484 0.001272966439796032
96964308 0.0027101813671016294 0.0011922371091885918
96994070 0.002684374085763839 0.001096100892322293
97023832 0.0027410679951179384 0.0007339900843974772
97053594 0.002635522004215268 0.000899576082492848
97083356 0.00260594830902529 0.0008145794578552825
97113118 0.0025071203162771965 0.0009285901345538943
97142880 0.00252895904162311 0.0005950168239180035
97172642 0.002474941336912742 0.00021899637213041465
97202404 0.0024458384027631697 0.00039135812674324287
97232166 0.002398966314228942 0.0002715484419224631
97261928 0.0023559281077747273 0.00016648015397515063
97291690 0.002298309839599818 7.855601972670384e-07
97321452 0.0022436064504199505 -0.00010490353718162986
97351214 0.002182193562215869 -0.0002516757802656637
97380976 0.002116625532880443 -0.0003559662451442843
97410738 0.002019824971169636 -0.0005163906052308349
97440500 0.0019571471877869073 -0.000618557300216459
97470262 0.0016003577064616467 -0.0009435615743332822
97500024 0.0017540427824447866 -0.0008612045948515386
97529786 0.0016582911644418318 -0.0009927718176215604
97559548 0.0012192420888742094 -0.0012369331532588249
97589310 0.001433165538863649 -0.0012323163368740495
97619072 0.0012631322739960094 -0.0013526672235243398
97648834 0.0011817428140349475 -0.0014537984481170947
97678596 0.0010379335847726279 -0.0015664796524937471
97708358 0.00047266814158935 -0.001630968893533434
97738120 0.0007462309295433025 -0.0017414697754793808
97767882 0.0005872210713491744 -0.0018367505545209735
97797644 0.0008389932052507815 -0.001965861743348567
97827406 0.00022412590135136641 -0.001970855462350632
97857168 -1.4494650414011993e-06 -0.00200581243423464
97886930 -0.00020237015061708624 -0.0020160026076288255
97916692 5.1592959173312956e-05 -0.0022454900768940542
97946454 -0.0006205169769073587 -0.0020211779043565452
97976216 -0.00038274078262446595 -0.002311205153062587
98005978 -0.0014392770858498354 -0.0015229775032254368
98035740 -0.0012422990356009574 -0.0019177568760881125
98065502 -0.0013931250343329012 -0.0019111808236240205
98095264 -0.0015362619244440022 -0.001946941271969638
98125026 -0.001695391081099601 -0.0019453648335262706
98154788 -0.002169934235817352 -0.001387898745270739
98184550 -0.001977393417633681 -0.0020054632834142585
98214312 -0.002109517963827943 -0.002038994115012872
98244074 -0.0025574579521583938 -0.0013736778754071925
98273836 -0.002358946746311154 -0.002119408449672786
98303598 -0.0025213470309100776 -0.0021229571712896404
98333360 -0.002648346866411064 -0.0021496597301480062
98363122 -0.002766859957268792 -0.0021277088542602965
98392884 -0.002907292077570427 -0.0020277041311855884
98422646 -0.0030157877297502128 -0.0020238119088893582
98452408 -0.003137020750624949 -0.0019581487480615878
98482170 -0.0032592286465265583 -0.0018491121860085681
98511932 -0.00334894462533539 -0.0018496075763792107
98541694 -0.0035848832891789157 -0.0008620900716232907
98571456 -0.0035578717053293585 -0.0016634308504535238
98601218 -0.0034500250618356614 -0.0024537236486474575
98630980 -0.0037554664885065077 -0.001499589304350556
98660742 -0.0038593758171815993 -0.0013802960836056647
98690504 -0.00395139116637511 -0.0003731195345165785
98720266 -0.004032576903524791 -0.0020392110019926413
98750028 -0.0041783502630472575 -0.0010216294418210336
98779790 -0.004269713263275317 -0.0008928165899158353
98809552 -0.004356068652627953 -0.000816701128128657
98839314 -0.0044285662516442 -0.0006426648180915857
98869076 -0.004504701721929983 -0.0005727338226901067
98898838 -0.004691024861703586 -0.0012889747473092334
98928600 -0.004650364383578025 -0.00030883176476171215
98958362 -0.004878166882415446 -0.001147786683868109
98988124 -0.00480073633962631 -0.00022628832748105695
99017886 -0.004849303034446858 -9.016842831787532e-05
99047648 -0.004927546147600193 -8.609675766351341e-05
99077410 -0.004968226685964461 4.30271418145347e-05
99107172 -0.00503382405372115 0.00012590370841081484
99136934 -0.005123493063239969 0.00012839585596015937
99166696 -0.005176947407772024 0.00021154584925251678
99196458 -0.005183300821180686 0.000319997080502985
99226220 -0.005211548732726428 0.0004001708622557762
99255982 -0.005270743001182959 0.0003796603139193829
99285744 -0.00526171655978588 0.0005076727199658219
99315506 -0.005322178662143765 0.000494770772069324
99345268 -0.00532839564505613 0.0005509530357281631
99375030 -0.005322416306176202 0.0006582898121332817
99404792 -0.005372981326983711 0.0006488530339940452
99434554 -0.005386904684747225 0.0007007836104490508
99464316 -0.005360484585485354 0.0009025889286160188
99494078 -0.005381813197979759 0.0010067174576739047
99523840 -0.005318057758954889 0.0012381524633967942
99553602 -0.0053041549890999054 0.0013953073141319767
99583364 -0.0057600758707705485 0.000846907026781394
99613126 -0.004649827687651834 0.0023630231736815424
99642888 -0.005189668817308223 0.0018702884927660579
99672650 -0.005137017318667527 0.002020116357867879
99702412 -0.0056308442843128245 0.0015435580856569516
99732174 -0.005065908471931943 0.00223993202985206
99761936 -0.004948340091085217 0.002394872933699088
99791698 -0.005205031474221447 0.002170765181905391
99821460 -0.005191508126154052 0.0022234765119345684
99851222 -0.005282163882790395 0.002153072424888044
99880984 -0.005837062008375786 0.0015857791541290657
99910746 -0.005312441815995109 0.0021872297871831665
99940508 -0.005919739664458279 0.0015437047021624167
99970270 -0.005382110951768097 0.0021505914099690347
100000032 -0.005421285573467521 0.0021404886248480364
100029794 -0.005414552076144483 0.002202108125109358
100059556 -0.005408860901632736 0.002256441913597021
100089318 -0.005403457893220863 0.0023250800401398626
100119080 -0.005401673302767357 0.0023838107552909588
100148842 -0.005398914185005583 0.0024427170381646807
100178604 -0.005381399075874758 0.0025004911655113027
100208366 -0.00537501334587966 0.0025609763868802682
100238128 -0.0053677210070493175 0.0026054127864264566
100267890 -0.005361537909557763 0.0026617789504643228
100297652 -0.00536993504656807 0.0027135919891955974
100327414 -0.005361302893988736 0.002754542982515268
100357176 -0.005365265747291046 0.0027962758337450803
100386938 -0.005366647576212397 0.0028275825037923923
100416700 -0.005364863928958024 0.002868035831745944
100446462 -0.005361292548209474 0.0029129928150581435
100476224 -0.005358630847259387 0.002956766620746796
100505986 -0.005361891248990136 0.0029893120771970557
100535748 -0.005364324469083734 0.0030225967522347417
100565510 -0.005378138740083321 0.003064989470877529
100595272 -0.005425008480219074 0.0031145501776211545
100625034 -0.0054736720202618536 0.0031747958754785653
100654796 -0.005526221451666399 0.003229199364154394
100684558 -0.005571932060628338 0.003281180914832315
100714320 -0.005628383826920421 0.003324527279204375
100744082 -0.005686463527611146 0.003380312087685116
100773844 -0.005739994110438523 0.0034277950336087095
100803606 -0.005790158476006516 0.003481591482092856
100833368 -0.005852110734635338 0.0035221549872600524
100863130 -0.005794020736183956 0.003569507373789837
100892892 -0.0057368881774056855 0.003605386122183717
100922654 -0.005681555883199119 0.003636071671790443
100952416 -0.005622924494735108 0.0036729549131867237
100982178 -0.005566038136257401 0.003699500951673332
101011940 -0.005508488463078943 0.00373376527267355
101041702 -0.005447414062102437 0.003773950175187599
101071464 -0.005393626127550819 0.0037967012257127497
101101226 -0.005335852394578151 0.0038243485904717518
101130988 -0.0053155251666567515 0.003843873446874587
101160750 -0.0053075487946010235 0.0038599190669011026
101190512 -0.005305752339051925 0.003875805980004798
101220274 -0.005298395741541869 0.003897118019900055
101250036 -0.005289426850984288 0.003909109025855855
101279798 -0.005286393337329626 0.0039262315713979494
101309560 -0.005274316472973224 0.003928732512487313
101339322 -0.005278780636671215 0.003949533020349868
101369084 -0.005269732194491512 0.0039656650903614
101398846 -0.0052427613679958286 0.004005810549835301
101428608 -0.005200436310172015 0.004094339130842805
101458370 -0.00514421033934828 0.0041789908352073855
101488132 -0.005103314135910055 0.004264210349438721
101517894 -0.005036348310563905 0.004363328229083083
101547656 -0.00499095208732016 0.00443861775576595
101577418 -0.004927719118894079 0.004531541729815097
101607180 -0.004900885935101916 0.004605421112048733
101636942 -0.004806136960217611 0.004692519815144314
101666704 -0.0047356139394713675 0.004774157716073899
101696466 -0.0048136812092590825 0.004727569031633627
101726228 -0.004980434637190485 0.004649695309957364
101755990 -0.004944457525310961 0.0046116880110697025
101785752 -0.005010794266976922 0.004550441591215966
101815514 -0.005067291032716785 0.004485688021805487
101845276 -0.0051331833523605794 0.004417554581715205
101875038 -0.00519291854368899 0.004355153724974299
101904800 -0.00537283836535191 0.004239660193171238
101934562 -0.005303746486424581 0.004204778419505832
101964324 -0.005264486511623239 0.004233323016905797
101994086 -0.005182505368741407 0.004310064229388507
102023848 -0.005119904722813806 0.0043809938387772826
102053610 -0.0050346619705160635 0.00445708493643681
102083372 -0.00495468477185232 0.00453232022964476
102113134 -0.0048759675672453715 0.004595836869349517
102142896 -0.004789984762773872 0.004657981163913471
102172658 -0.004702560974977191 0.004723686715181306
102202420 -0.004617690454040668 0.004778758965211302
102232182 -0.004587244501726245 0.004818482903911905
102261944 -0.004797528582948942 0.004844672144321376
102291706 -0.0046924045910464425 0.004857740996325969
102321468 -0.004867858368230214 0.004875689454360487
102351230 -0.005056185476054673 0.004624359945720487
102380992 -0.005012052480261141 0.004901736885653581
102410754 -0.005241259203500088 0.004913699712487299
102440516 -0.005069158704201554 0.004920781055336833
102470278 -0.005229193556624148 0.004938241306208666
102500040 -0.005362897064342433 0.004938467229223211
102529802 -0.005339050679522881 0.004969290255547922
102559564 -0.005286258047602089 0.00500859049463011
102589326 -0.005193375190454836 0.005048762236224528
102619088 -0.005268238284486579 0.0050698450275036815
102648850 -0.00511744924732834 0.005112939026172567
102678612 -0.005054085606751934 0.005142902423285703
102708374 -0.004992808984958317 0.005175404244978122
102738136 -0.004941555509228168 0.005196348351588107
102767898 -0.004879890387694406 0.005230239784315614
102797660 -0.004849382845983616 0.005227195977232278
102827422 -0.0048240958863403635 0.005204417858554305
102857184 -0.004800927945307079 0.005192639866441947
102886946 -0.004782640263583491 0.005167882249496044
102916708 -0.0047614189779304275 0.005151940256352282
102946470 -0.004734475849443007 0.005137664469894476
102976232 -0.004710910241069982 0.005112789987587625
103005994 -0.004695640792431165 0.005095738425044011
103035756 -0.004676493209954826 0.005077259142176677
103065518 -0.004655589301020957 0.005075109679310965
103095280 -0.004659386801871947 0.005103093484253529
103125042 -0.004662140935060121 0.005138255354259836
103154804 -0.004661334705267416 0.005173011407065423
103184566 -0.004668250867332814 0.005204670451303974
103214328 -0.0046697475819264716 0.00523091845598115
103244090 -0.0046810726081667085 0.005268772458246991
103273852 -0.004676626721788265 0.005304490917190535
103303614 -0.004678681773329924 0.005331483793412214
103333376 -0.004681616335323289 0.005361457209147421
103363138 -0.004591388124107284 0.005380701288274911
103392900 -0.004503455099428888 0.005392048437273326
103422662 -0.004408032311168466 0.005400536864927038
103452424 -0.004317525927061668 0.005407301981946895
103482186 -0.004229886638277541 0.005421765460257161
103511948 -0.004140998627956293 0.005423457021517912
103541710 -0.004058318432121952 0.0054267185124296765
103571472 -0.003974907357930915 0.005434977532910861
103601234 -0.003891513828388093 0.005433773631497312
103630996 -0.003886997723693916 0.005433427791665606
103660758 -0.0039308071828934674 0.005424124580551995
103690520 -0.00397129531533531 0.005417411620758065
103720282 -0.004013692282197896 0.005412481832304308
103750044 -0.00405004355860939 0.005406122354030525
103779806 -0.004097303043874453 0.005388729976622823
103809568 -0.004139551667206752 0.005381110672110756
103839330 -0.004176351553105713 0.005372346709578439
103869092 -0.004223673055841042 0.005354204066873996
103898854 -0.0042611224797250834 0.005356112023019949
103928616 -0.004300988533162176 0.00537784407056795
103958378 -0.0043430959496086365 0.0053984474335256995
103988140 -0.0043779026650899696 0.005416466362148715
104017902 -0.004417175076067062 0.005442812514814845
104047664 -0.004465122479341668 0.005460423443003241
104077426 -0.004505663809791842 0.005483241805645317
104107188 -0.004547677755106491 0.005508168058623153
104136950 -0.004588212197702747 0.005526777010531396
104166712 -0.004631231366934753 0.005551179562901497
104196474 -0.004626157817268654 0.005596919801463745
104226236 -0.0046137507298871965 0.005642829602375422
104255998 -0.004608386060768702 0.0056968724672828265
104285760 -0.004598084922777871 0.005746940747621046
104315522 -0.004578174710265259 0.005799559991112986
104345284 -0.004575854049464415 0.005847931587293111
104375046 -0.004555274087561469 0.005900434929589857
104404808 -0.004549301665663011 0.005952112571041334
104434570 -0.004538375336008492 0.006003571016505903
104464332 -0.004524652505307792 0.005990180792836011
104494094 -0.004503924613474284 0.005934846619623382
104523856 -0.004492486702819062 0.0058788270015853695
104553618 -0.00447590327799273 0.00583044565642073
104583380 -0.004456935122939251 0.005779318260259547
104613142 -0.004440116388730515 0.0057291364562083915
104642904 -0.004421771559454097 0.005679962085739933
104672666 -0.004403805092024546 0.005631735798085908
104702428 -0.0043839391415964185 0.005582434000799654
104732190 -0.004367525933131617 0.005578954797780901
104761952 -0.004353460663096987 0.005656603165544587
104791714 -0.004338987283303066 0.005728980600702641
104821476 -0.00432598311759011 0.005811953364761835
104851238 -0.004307354685120535 0.005889398804372156
104881000 -0.004291402495876963 0.005970828354552181
104910762 -0.004267737830114785 0.0060524221412612406
104940524 -0.004246043946279265 0.006130432166538733
104970286 -0.00422554856944688 0.006212653930445183
105000048 -0.004204918981930047 0.006300883821264583
