# HZ S RI R 50
90000000 -0.0009543380339064523 0.0055156265519513865
90029762 -0.0009275421456163039 0.005553093045409395
90059524 -0.001173921851411532 0.005577567993673199
90089286 -0.001040120993160349 0.005618337588727154
90119048 -0.001235065786346668 0.005642171787199404
90148810 -0.0010502990705335733 0.0055848475958115585
90178572 -0.0011324261218147824 0.005715645492596949
90208334 -0.001110376205094169 0.00575475596965679
90238096 -0.001364815665189309 0.005776498769878683
90267858 -0.0012312553624017999 0.005816891873079318
90297620 -0.0012259217294489867 0.005801105090015339
90327382 -0.0011429207612157356 0.0057597014647461425
90357144 -0.0011719604253271104 0.0057145187856754934
90386906 -0.0010923143980956097 0.005673209609161429
90416668 -0.0012752022779387842 0.005621973865991804
90446430 -0.0010901442063334277 0.0055876444544318594
90476192 -0.0010159519939179531 0.005545568315544238
90505954 -0.000991616872837259 0.005506737089518732
90535716 -0.0010160178759207918 0.005466049265222642
90565478 -0.0009404651439729677 0.005444995973494649
90595240 -0.0009535484178496901 0.005459576876337481
90625002 -0.0009185058263512797 0.005476812432037755
90654764 -0.0008378853447592344 0.0054939430048120295
90684526 -0.0008035017328290495 0.005508949473969435
90714288 -0.000814320334480861 0.0055225691072648825
90744050 -0.0007763017273918733 0.005539151866471804
90773812 -0.0006940614450393947 0.005552968915387543
90803574 -0.0007040230689256259 0.005567671999996752
90833336 -0.000621022031706151 0.005583519929530138
90863098 -0.0005973755326442018 0.005559678748242399
90892860 -0.0006229813211080722 0.005538856719229886
90922622 -0.0005524447408564349 0.005518636354258827
90952384 -0.0005293758843046868 0.0054959003443900015
90982146 -0.0005528903091599222 0.005475875815110466
91011908 -0.0004884979726627476 0.005449958052935627
91041670 -0.0005092953497669985 0.005429501913690692
91071432 -0.0004870703682834136 0.005407765015515239
91101194 -0.0005920873146442282 0.005388408630230247
91130956 -0.0004374197943371736 0.005400099685095794
91160718 -0.0005107196117287922 0.0054326077728610875
91190480 -0.0005437032613353216 0.005463041884638993
91220242 -0.0007039755840490211 0.005496369727123604
91250004 -0.0006148921220083438 0.005525107123346886
91279766 -0.0007771758016325348 0.005555243642683072
91309528 -0.0006446388894914715 0.00558958259819066
91339290 -0.0007259991297720856 0.005617654096660569
91369052 -0.0007221781488390948 0.005648954551312538
91398814 -0.0009167611327424645 0.0056551058735845525
91428576 -0.0007898137990295053 0.0056375778526413355
91458338 -0.0007443995391499904 0.0056140332256174146
91488100 -0.0007823802295707494 0.005587755912387176
91517862 -0.0007778333673979607 0.005566015636751114
91547624 -0.0007349934712206748 0.0055405026828913885
91577386 -0.0007344151734951892 0.0055177215900369505
91607148 -0.0007688757717576832 0.0054937344768950114
91636910 -0.0007650534708100916 0.005470609786308204
91666672 -0.0007238543479061348 0.0054517605242224675
91696434 -0.0006907159778305463 0.00546969587618611
91726196 -0.0005818307119454804 0.00549233034247133
91755958 -0.000510372423630058 0.005507901357557514
91785720 -0.0004729349411603017 0.0055225768438419715
91815482 -0.00036268813306162363 0.005536789965000114
91845244 -0.0002868717270798441 0.005549046822475433
91875006 -0.0002480753089768132 0.005563475074229787
91904768 -0.00028173891666210003 0.005575736795596474
91934530 -9.615034620903811e-05 0.00557811570132905
91964292 -7.141159993280249e-05 0.005596336464881503
91994054 -3.8944663362263204e-05 0.0056189688639189895
92023816 -0.0001828410720056728 0.005650084893183222
92053578 -7.927246056250871e-05 0.005670813635656711
92083340 -8.248738435151905e-05 0.005695892673692744
92113102 -5.091051894771279e-05 0.005715588463711441
92142864 -8.794229251132554e-05 0.005743749912053264
92172626 -5.571754292393869e-05 0.005769039683003288
92202388 -0.00019766107442746868 0.005800065532543286
92232150 -0.00010186657582469107 0.005794572502899138
92261912 -0.00022434219058689396 0.00574403330960414
92291674 -0.00010644420982081327 0.005688344701507925
92321436 -0.00015730478823292238 0.005639712320817792
92351198 -0.00014286653331404382 0.005588660635391306
92380960 -0.0001904520011976998 0.005541297950491016
92410722 -0.00020482913951652535 0.005489971569514039
92440484 -0.0001868232111966064 0.005441394243726634
92470246 -0.00020128114365752163 0.0053933653159031125
92500008 -0.00024435242341140086 0.005344336299098426
92529770 -0.0002676033529399409 0.005369414342564018
92559532 -0.0002445170050836487 0.005391967817015831
92589294 -0.00027817926917457443 0.005412701754706691
92619056 -0.0002599159529886906 0.005435880186458332
92648818 -0.00026745006955816226 0.0054585755957936915
92678580 -0.00030416883671182104 0.005480325118306765
92708342 -0.00028276763572325216 0.005504738939344147
92738104 -0.000294063937979937 0.0055259355667512545
92767866 -0.00031318828536258946 0.005546838761937878
92797628 -0.0002686919107665126 0.0055642131969234
92827390 -0.0002673184447212546 0.005574668350483205
92857152 -0.00023701713062984425 0.005588122370956404
92886914 -0.0002893394270406421 0.005599257883541443
92916676 -0.00015064751775722016 0.005618483077379663
92946438 -0.0001456008259872519 0.005628747388596053
92976200 -0.0001143480765727695 0.005641976401596045
93005962 -0.00016198265481334585 0.005652143467688614
93035724 -5.0930972507106165e-05 0.005668915220046677
93065486 -9.398074294647056e-05 0.00568800930123529
93095248 0.00010518148080797869 0.005672761330478694
93125010 0.00016012818774708824 0.005668507747341857
93154772 0.00030134813743828623 0.0056525899009508595
93184534 0.00029792883323861974 0.005632407696158873
93214296 0.00042258864776776087 0.005639183257676794
93244058 0.00041806699916816946 0.005631057239087371
93273820 0.0005877190295862455 0.005613368903344274
93303582 0.0006524601720690681 0.0056032324351774744
93333344 0.0007747512655638297 0.0055764779897609605
93363106 0.0007032611569532155 0.005591338716253591
93392868 0.0006223961852591 0.005604044638491804
93422630 0.0005400101107027474 0.005633902664325286
93452392 0.0005343435408686905 0.005618261591879071
93482154 0.00042106614835501447 0.005637950224032519
93511916 0.0004196098065518672 0.0056286186034875405
93541678 0.0003644738462064045 0.005629224342603501
93571440 0.0003188350773723702 0.005622123002839679
93601202 0.00024928851346215443 0.005630147217248047
93630964 0.000269882827885404 0.005626708956538407
93660726 0.00030989509790783833 0.005623295744985588
93690488 0.0003903608799451206 0.005621370908447703
93720250 0.0004303533742081175 0.005618343146066612
93750012 0.0004889534675003319 0.005613967531370248
93779774 0.0005683807161673524 0.0056090113263697625
93809536 0.0005522603382814335 0.005603022160549026
93839298 0.000671316087437248 0.005594824736481447
93869060 0.000732044479818456 0.005585898433164025
93898822 0.0007963770495593831 0.005573396536262563
93928584 0.0007954879921208634 0.005556694159863962
93958346 0.0008333579811577635 0.005537799322163383
93988108 0.0007837564200674764 0.005524006127370166
94017870 0.0008541945677840308 0.005503634914030152
94047632 0.0008216284062218173 0.005487905655905353
94077394 0.0009087620705350608 0.005468026982510852
94107156 0.0009096690441298702 0.005447156454840626
94136918 0.0009464181309326123 0.005428260224402968
94166680 0.0009501356545895459 0.005409236805619364
94196442 0.0009601668116524899 0.005680213735222
94226204 0.0009171203551481419 0.005980676544781729
94255966 0.0009857148487261516 0.006313428937067178
94285728 0.000954132102694377 0.0066860950800672675
94315490 0.0009293047321919528 0.007103652002910019
94345252 0.0008942146119797298 0.007572533929843778
94375014 0.000804137048583078 0.008104805238225236
94404776 0.0007145337555460444 0.00871201542197501
94434538 0.0005437103963674129 0.009414278135961126
94464300 0.0005744938566415982 0.009136723165563793
94494062 0.0007467526302588916 0.008429478295441122
94523824 0.0008557212727142235 0.007814461409807285
94553586 0.0009179959976525115 0.007274903860225659
94583348 0.0009950450622783667 0.006802404650251701
94613110 0.0010237795924689249 0.006378230315938812
94642872 0.0010542522180758199 0.005999710618241773
94672634 0.0010888071660251444 0.005663526183788424
94702396 0.0011072924584114555 0.005355700597124961
94732158 0.0011116583618811231 0.005150583343146846
94761920 0.0011362114742219822 0.005097566366949004
94791682 0.0011299789185316442 0.0050449764661341994
94821444 0.00118264256611046 0.0049904329050098695
94851206 0.0011771741673939017 0.004939481969142627
94880968 0.0012353630881499346 0.004885245731731587
94910730 0.001249246539589555 0.004831044707494869
94940492 0.001281533229396669 0.004780970723201174
94970254 0.001270118962757002 0.004728145910906613
95000016 0.001317212312536132 0.004673664437170858
95029778 0.0013101277077147784 0.00468690229691405
95059540 0.0013411545448196128 0.004698866765459568
95089302 0.0013566815362219989 0.004712294708871311
95119064 0.0013747568866573716 0.004722091217035067
95148826 0.0013655285990782945 0.004735254881688945
95178588 0.0013964400492079065 0.0047450442290138594
95208350 0.0014105264642989674 0.004755484320852459
95238112 0.001428592329055024 0.004765387818155919
95267874 0.0014378515068128443 0.004775598409402914
95297636 0.0014689925171611532 0.004766763946161207
95327398 0.0014957593666371696 0.004748531225728952
95357160 0.0015199306939497664 0.004731117682225248
95386922 0.0015512257647056138 0.004710175103572656
95416684 0.0015805266582963556 0.004690755818399304
95446446 0.0016022249067698488 0.004672333757047273
95476208 0.001639696396390632 0.004648985905228188
95505970 0.0016653770440479955 0.004626849433468413
95535732 0.0016943522495851348 0.00460298221715061
95565494 0.0017343994512694135 0.004573547526309349
95595256 0.0017920582775011963 0.004538962408537402
95625018 0.0018438313812506424 0.004503610209491021
95654780 0.0018981986513972582 0.004464989450765405
95684542 0.001957519797096999 0.004426450817743541
95714304 0.0020072888939883927 0.004386773615930885
95744066 0.0020669099740604456 0.0043431398989075025
95773828 0.002112225248149163 0.004294865680258221
95803590 0.002175013343706055 0.004249731430596108
95833352 0.0022248801678743397 0.004205322931557462
95863114 0.002250651572520117 0.004128349393942238
95892876 0.0022711528822038636 0.004049979461282821
95922638 0.002286424994048938 0.003974871033773771
95952400 0.002308989069798836 0.003893261140039989
95982162 0.0023279540700672876 0.0038165451335564764
96011924 0.0019958503006003345 0.003805678803330379
96041686 0.002388112150255389 0.003637918194982843
96071448 0.002382599059181352 0.0035658474109028612
96101210 0.0023861016960812936 0.0034923764050124395
96130972 0.0020821860576087045 0.0035258568534622947
96160734 0.0024642027232191425 0.0033865537377345766
96190496 0.002450323902989519 0.003362427828117874
96220258 0.0025508773631906195 0.0032737229494782683
96250020 0.0025597321920786983 0.0032382678314773323
96279782 0.002583936913928426 0.0031912962240033707
96309544 0.002616591912302559 0.003133470459244076
96339306 0.002643509264444889 0.003077946565803849
96369068 0.002671930215514969 0.0030223047363818795
96398830 0.00272178011317573 0.002946263168970444
96428592 0.0027802517837606064 0.00286032902405635
96458354 0.002789919714092075 0.0028031532442668173
96488116 0.0031254525304780264 0.0025276960596242477
96517878 0.0028664798974467726 0.002642278598583351
96547640 0.002902406493831136 0.002555532941345766
96577402 0.0029343883078820914 0.002473997244286283
96607164 0.002968302735087458 0.0023733077518866257
96636926 0.0032557431667556785 0.002034942249202057
96666688 0.003025895928829609 0.00217874355860705
96696450 0.003000920401398815 0.0020734423344497756
96726212 0.002975796994113743 0.0019727769397485133
96755974 0.0027284721439526376 0.0020617573416802353
96785736 0.002920225404057922 0.0017519694689812509
96815498 0.0026949044439891568 0.0018483618832687094
96845260 0.0028611997069257268 0.0015293792346767702
96875022 0.0028224698593943567 0.0014163996901543172
96904784 0.0027855203718548088 0.001316502462681393
96934546 0.002761227752664819 0.0011844884802514489
96964308 0.002724558337478081 0.0010970534694335343
96994070 0.002699376029189576 0.00100564670598499
97023832 0.0027381875472030936 0.0006307283271802432
97053594 0.002646856369713181 0.000801861474504731
97083356 0.0026082614892215476 0.0007049243153691566
97113118 0.0025223655535311015 0.0008283456006723265
97142880 0.002541369529175881 0.0004944859389253771
97172642 0.0024703408758529797 0.00010085773316971671
97202404 0.0024562961275938857 0.00028112770409291813
97232166 0.0024021597193535867 0.00015545075098108373
97261928 0.0023528280706525883 2.6967143545980486e-05
97291690 0.0023045116579637824 -0.00011017808006203921
97321452 0.002231955348807417 -0.00024397323807236288
97351214 0.002166959007172121 -0.0003649376381987669
97380976 0.002093236595613298 -0.0004965008956199351
97410738 0.0020023338341521968 -0.0006380775083988058
97440500 0.0019267599633422375 -0.0007666794457495363
97470262 0.0015335625746429708 -0.0010728497420900898
97500024 0.0017168298821557933 -0.001028841529671314
97529786 0.0016142864810608562 -0.0011410946513762952
97559548 0.001142858612028981 -0.0013718908434286335
97589310 0.0013770621204840141 -0.0013897138414932669
97619072 0.001189927617723899 -0.0015032111013580584
97648834 0.0011151162710786753 -0.0016030627959826352
97678596 0.0009562506184800284 -0.0017177496766533746
97708358 0.0003559561839560807 -0.0017696144995416074
97738120 0.0006556845369881136 -0.0019157629472872383
97767882 0.00048576465461005666 -0.0019964204113461725
97797644 0.0007636755707350197 -0.00213915332909324
97827406 9.762980317536287e-05 -0.00211666998400416
97857168 -0.00013312809324143428 -0.0021490963006765883
97886930 -0.00034943399099038905 -0.0021666376273095215
97916692 -8.339916652029621e-05 -0.002421441338319257
97946454 -0.000796383589504734 -0.002152866769719324
97976216 -0.0005446023998429641 -0.0024555203847052075
98005978 -0.0016193482427857646 -0.0015885700449674166
98035740 -0.0014294295790344368 -0.0020113282078072243
98065502 -0.0015900936398913306 -0.001978997322212992
98095264 -0.00173166812394657 -0.0020178056384141684
98125026 -0.0019021626001509255 -0.0020162192380211753
98154788 -0.0023684135071505275 -0.0013966706924205304
98184550 -0.0021886726504547547 -0.0020834552216652774
98214312 -0.002319729790721925 -0.002103292953995712
98244074 -0.002773078643817172 -0.0013918188455059287
98273836 -0.002598648342662289 -0.0021828817791039483
98303598 -0.002740960682041151 -0.0021607600223498705
98333360 -0.0028770348067776313 -0.0021844365211318123
98363122 -0.003000840479478313 -0.002174335311110635
98392884 -0.0031324088424235564 -0.002074134897500953
98422646 -0.0032513667509826987 -0.0020470778585544675
98452408 -0.003364647823279851 -0.0019857078118176432
98482170 -0.003490612770542491 -0.001856154155867328
98511932 -0.0035801649114751075 -0.0018407564963699129
98541694 -0.003770586327039428 -0.0008341776852222098
98571456 -0.003779225733882596 -0.00162927260680974
98601218 -0.0036862221416084392 -0.0024679215017843793
98630980 -0.003984362886581823 -0.0014636150560698574
98660742 -0.004093004217010728 -0.0013363081579250116
98690504 -0.004113485073568979 -0.0002860811791411154
98720266 -0.004274262903251799 -0.00201951408846237
98750028 -0.004387128533838529 -0.0009461958962984166
98779790 -0.004460029546741368 -0.0008165354320973867
98809552 -0.00454523169668262 -0.0007577837194910564
98839314 -0.00460954830141518 -0.0005515093977656656
98869076 -0.004680793671559103 -0.00045841052662231815
98898838 -0.0049037672030065454 -0.0012084336415094745
98928600 -0.004811108164911103 -0.00020953941866754173
98958362 -0.00508180772416755 -0.0010487638030919123
98988124 -0.0049624850931276575 -0.00011091919670984579
99017886 -0.005061673951073596 7.945358640151663e-05
99047648 -0.005131092601084304 9.056678505966878e-05
99077410 -0.005162375136882384 0.0002317959558425007
99107172 -0.005223181226143021 0.0003082224142154941
99136934 -0.005313042579913766 0.0003185377820955065
99166696 -0.005355582980782602 0.0004041085035314961
99196458 -0.00553762871336107 0.00033190068829465813
99226220 -0.005415504505458641 0.0005356936714394734
99255982 -0.005473050716475965 0.0005601813042668447
99285744 -0.005395521326712191 0.0007081584542055353
99315506 -0.00545232474061561 0.0006972948202697747
99345268 -0.005467341043813009 0.0007502140128488718
99375030 -0.005493635040374186 0.0008103160605849244
99404792 -0.005230692205572648 0.0010797275237527204
99434554 -0.005477909768610728 0.0009243930156941091
99464316 -0.005449551437369279 0.0010854014561237934
99494078 -0.005493030412291753 0.001173605443962227
99523840 -0.005424900435516027 0.0014142710469686507
99553602 -0.00531685306081529 0.001613899452624922
99583364 -0.005869814392739777 0.0010331743201162718
99613126 -0.004738101645948459 0.002484293448455907
99642888 -0.005243203604742117 0.002030963167390263
99672650 -0.005131470082664627 0.0022172579276249268
99702412 -0.005662711525070911 0.001751868248316884
99732174 -0.005067762375597492 0.00242347061110437
99761936 -0.0049607904539064026 0.0025554692237626615
99791698 -0.00521267445191499 0.0023511534846284536
99821460 -0.005190952063134187 0.0023861221456072954
99851222 -0.005287664700817311 0.0023229389124138048
99880984 -0.005851114132895414 0.0017726059744763297
99910746 -0.005295341500470977 0.002343035608229626
99940508 -0.00592407699888573 0.0017441076170406555
99970270 -0.005363177440452359 0.0023175259588219007
100000032 -0.005405683920659285 0.002299505283991319
100029794 -0.005394814389137228 0.002357531617916747
100059556 -0.005383813112113999 0.002416366806077689
100089318 -0.0053762066108177355 0.0024719549685292574
100119080 -0.0053720209755060006 0.0025279317509005602
100148842 -0.005356097833308479 0.0025728267176261727
100178604 -0.005349740877239411 0.002627466059502004
100208366 -0.005340227480062309 0.0026837753628099308
100238128 -0.005336980676449386 0.002740029972258348
100267890 -0.005319232596578969 0.0027954318664843284
100297652 -0.005315697846396221 0.00283401696270589
100327414 -0.005321284548695788 0.002873031401487607
100357176 -0.005317270315206627 0.00291234068505013
100386938 -0.005313199340258626 0.0029519722357211967
100416700 -0.005317228871053684 0.002985752377206827
100446462 -0.005314068199342382 0.0030266099992686916
100476224 -0.0053141209879928345 0.003056975059244652
100505986 -0.005317954450091863 0.0030886453381528465
100535748 -0.005304933649509668 0.0031210840505179853
100565510 -0.005327349039264595 0.0031616853648280497
100595272 -0.005373355742205875 0.003217992234449348
100625034 -0.005426286394072364 0.003274825959548947
100654796 -0.0054704517757130176 0.0033148486701529145
100684558 -0.00552410244489511 0.0033590369021068464
100714320 -0.005574280967800958 0.003412420281021606
100744082 -0.005628544791537596 0.003466995623980886
100773844 -0.00568722677426925 0.003512497145950152
100803606 -0.0057429396921333 0.003563315447115717
100833368 -0.005801385425067651 0.003606227999094924
100863130 -0.005736481973900391 0.0036460464754192704
100892892 -0.0056931374889510715 0.00368133394419316
100922654 -0.0056263680321439625 0.0037117776124202598
100952416 -0.005569366622094212 0.003747231338289891
100982178 -0.00551480043391044 0.0037719937879945177
101011940 -0.005459458648152136 0.0038022854743288196
101041702 -0.0053933893070996245 0.003830137368310221
101071464 -0.005340952074457573 0.0038598251608962905
101101226 -0.005286528533017728 0.0038860309374869366
101130988 -0.005258960280680076 0.003908771227195448
101160750 -0.005253977429654477 0.003920159360769297
101190512 -0.005255169008299461 0.003940333326074516
101220274 -0.005247366049920209 0.003953014473584051
101250036 -0.005240125565113679 0.003961125376389905
101279798 -0.0052400083182465185 0.003978647879965456
101309560 -0.005232020998732409 0.003988735414302985
101339322 -0.00522586133467991 0.004006512853975431
101369084 -0.005219547797328721 0.004019278130753969
101398846 -0.005199843322445048 0.0040565032903474105
101428608 -0.0051497529184956195 0.004148115210868752
101458370 -0.005104416744263507 0.0042297645729484695
101488132 -0.005053412766111606 0.004316421892936313
101517894 -0.004992858517596537 0.004406657036559436
101547656 -0.004937335527685515 0.004492897984432788
101577418 -0.004884744744302565 0.004570902665063064
101607180 -0.004822277738930954 0.004654539425411585
101636942 -0.0047603417571389466 0.004737177218753545
101666704 -0.004693312240424446 0.004814595923366715
101696466 -0.0047730127988501745 0.004762656909986104
101726228 -0.004837145657769894 0.004704757508899856
101755990 -0.004900826497309601 0.004658603454906804
101785752 -0.004965201842339902 0.004593632766560126
101815514 -0.005038740094522087 0.004526774245217764
101845276 -0.005094455572666918 0.0044695370930911155
101875038 -0.005151887938054767 0.00440333995671847
101904800 -0.005200963961789821 0.004328168464351349
101934562 -0.005261544938553665 0.004255711816196956
101964324 -0.005227536287307595 0.004283034598030397
101994086 -0.005154806341041223 0.004362824175116288
102023848 -0.005036164995800487 0.004417090450427886
102053610 -0.004987917026868555 0.00448050733239816
102083372 -0.00490691041740084 0.004546228601818358
102113134 -0.004819260849487532 0.004614953860469948
102142896 -0.004741243719606185 0.004678442346962185
102172658 -0.0046524273763527005 0.004737555263642746
102202420 -0.004563154884279994 0.004791514161480676
102232182 -0.004569762300797237 0.004832650331953041
102261944 -0.0046224114702628945 0.004856886627814847
102291706 -0.004700583359077111 0.004870443680305933
102321468 -0.004784133773443994 0.004894117628997127
102351230 -0.0048691990623725805 0.004915891661165522
102380992 -0.00495928021654583 0.004927678732032683
102410754 -0.0050544321768096175 0.004935517885393643
102440516 -0.005144864887926612 0.0049439265929760385
102470278 -0.005236982370444591 0.0049528296762840285
102500040 -0.00534286963269617 0.004957418580914214
102529802 -0.005284586674022747 0.004989714550009023
102559564 -0.005231341051836299 0.005024888492546294
102589326 -0.005170381804378241 0.005060816123013149
102619088 -0.005109299764433353 0.0050850264285626405
102648850 -0.005056744420509502 0.005117699233951321
102678612 -0.005000234688867199 0.005148712951973909
102708374 -0.004944084979519987 0.005180738786505284
102738136 -0.004882311586202544 0.005207131387034919
102767898 -0.004828057518112859 0.0052371062731708905
102797660 -0.0047914265160514365 0.005230273641628205
102827422 -0.004774746079582994 0.005215599931148623
102857184 -0.00475564399326696 0.005194416818395094
102886946 -0.00473157843326083 0.005173597926126027
102916708 -0.004705548864221391 0.005161127152091102
102946470 -0.004692590171253019 0.005138040805067014
102976232 -0.004671305470406629 0.005116034869732501
103005994 -0.004649627717794683 0.005096752819375761
103035756 -0.004626395401598125 0.005073492645811813
103065518 -0.004613448131884855 0.005078692552897159
103095280 -0.004617463727640711 0.005107609917661377
103125042 -0.004617692763963505 0.005137064951101319
103154804 -0.004623688667552768 0.005165483001823468
103184566 -0.004625324726851851 0.005203327265205961
103214328 -0.0046290095165237195 0.00523199137970972
103244090 -0.004624613864590432 0.005263537407624741
103273852 -0.004633535789082942 0.005300510740749993
103303614 -0.004633448935216084 0.005329845259978052
103333376 -0.004639186463723181 0.005361959504001986
103363138 -0.004548694125823587 0.005375741787183296
103392900 -0.004455215498827127 0.005382995922110002
103422662 -0.004370332989350235 0.005394383539730716
103452424 -0.004280104167651284 0.005405585170331089
103482186 -0.004195952536979895 0.005411089435275709
103511948 -0.004109160029214298 0.005418007147572588
103541710 -0.00402271887228169 0.00542290404065202
103571472 -0.003938507968234157 0.005422145824175009
103601234 -0.003859198709984987 0.005429109261429207
103630996 -0.0038543437407613764 0.005424084531960541
103660758 -0.0039004899421803208 0.005413887178518503
103690520 -0.003936641286841994 0.005412569488727216
103720282 -0.003977230937281119 0.00540342587343509
103750044 -0.00402560733089393 0.0053925579672998575
103779806 -0.00406195205767763 0.005382119123385173
103809568 -0.004104844527900219 0.005376280919402081
103839330 -0.004150582034576904 0.005357858111039593
103869092 -0.00419276862842396 0.005344069942496081
103898854 -0.004236636513903862 0.005344375359507278
103928616 -0.0042730999587830935 0.0053669900703457825
103958378 -0.004311729371423529 0.005394030441142445
103988140 -0.0043495714467668605 0.0054057679308406655
104017902 -0.004387383380499562 0.005432998448824088
104047664 -0.004432037215768543 0.0054533547261555225
104077426 -0.004479486264080229 0.005476188526507281
104107188 -0.004516382771511633 0.005497862490962358
104136950 -0.004565400151544264 0.005512924658556903
104166712 -0.004606878689927738 0.005541465039757068
104196474 -0.004592640082871304 0.005586096582760245
104226236 -0.004583341132586953 0.005634255194411684
104255998 -0.004577621422032619 0.005682145065886548
104285760 -0.004571984490141867 0.0057299933541944395
104315522 -0.004550420464407038 0.005785139171478794
104345284 -0.004543980912706181 0.005834710863145753
104375046 -0.004531976984093435 0.005885815191056409
104404808 -0.00452386812695312 0.005937255656599803
104434570 -0.004513626463493578 0.005988850721376002
104464332 -0.004493417443800906 0.005966766529975226
104494094 -0.004477880176426581 0.005917259623341774
104523856 -0.004459169341770457 0.0058680180998069275
104553618 -0.004446425642243525 0.005815599263123483
104583380 -0.004433022678481333 0.005767819081679365
104613142 -0.004410954250206739 0.005713929941160442
104642904 -0.004394691316921794 0.005669515240337412
104672666 -0.004375716855837809 0.00562442787089046
104702428 -0.00435979266794139 0.0055737054259154106
104732190 -0.0043420994468932 0.0055696744314964255
104761952 -0.004327395003493778 0.0056445705004761525
104791714 -0.004320210851284125 0.005724853687531153
104821476 -0.004298086825126397 0.005799823780856
104851238 -0.004288079546155141 0.0058776128627844
104881000 -0.0042682845605469255 0.005953964609783599
104910762 -0.004248968017890787 0.006037575045281175
104940524 -0.004225982037226545 0.006117454430756787
104970286 -0.004202996364301643 0.006201169788630691
105000048 -0.004176162531573834 0.006283528153469504
