# HZ S RI R 50
90000000 -0.0009487339994684791 0.005516807471032918
90029762 -0.0009212449947270411 0.005550259503426468
90059524 -0.0011670678787107087 0.005575647743249565
90089286 -0.0010350063012887097 0.005617158804519312
90119048 -0.00121014335524148 0.005641252428108979
90148810 -0.0010929413716719032 0.005681548813136405
90178572 -0.0011267134739333122 0.005716625522390693
90208334 -0.0011023811055098553 0.0057521250263147545
90238096 -0.001356704951049546 0.00577400353702148
90267858 -0.0012266214018527887 0.005815281326057557
90297620 -0.0012175268777215795 0.005797506416276999
90327382 -0.0011723271177712256 0.005757331770533529
90357144 -0.0012719802045188936 0.005715113316201662
90386906 -0.001085729016327851 0.005670980626210429
90416668 -0.0012675934465003944 0.005620071633629247
90446430 -0.0010868565397807012 0.005583937455759414
90476192 -0.0010971482913740191 0.005553896938110377
90505954 -0.0009845380097263461 0.00550603629070255
90535716 -0.0010118206974583921 0.005462232916677451
90565478 -0.0009324760203886333 0.005439655657999719
90595240 -0.0009793805599650422 0.005459862292067125
90625002 -0.0009139130524641887 0.0054746754404958525
90654764 -0.0008319549917453331 0.005491531320957389
90684526 -0.0007953948200321085 0.0055064296861110935
90714288 -0.0008081833904551889 0.005521193802158291
90744050 -0.0007717453428907941 0.005535440830425937
90773812 -0.0006885997316049479 0.005553592701531079
90803574 -0.0006973025334552382 0.005566217588805689
90833336 -0.0006144987548243345 0.005579051385981383
90863098 -0.0005909329467870519 0.005557091501785998
90892860 -0.0006133564984696603 0.005536888580301425
90922622 -0.0005455252232328099 0.005509989441959968
90952384 -0.0005236948385195513 0.005491589454446961
90982146 -0.0005464654638023812 0.005469474526175146
91011908 -0.00047985525709657884 0.005445762063613212
91041670 -0.0005004015192209171 0.005426620507984228
91071432 -0.00047892307662772 0.0054042585506103805
91101194 -0.0006531806042431634 0.0053945495089818786
91130956 -0.0004285274019367193 0.005396506012410153
91160718 -0.0005029196583630698 0.005428529739602919
91190480 -0.0005371104793725927 0.005459703553836517
91220242 -0.0006986765014586631 0.005490142318492296
91250004 -0.0006067531915261386 0.005520867183686885
91279766 -0.0007686320269641713 0.005554484133591456
91309528 -0.0006363303744691653 0.005584887519169055
91339290 -0.0007178722129709889 0.0056157156194694465
91369052 -0.0007119741842987353 0.005646308581985981
91398814 -0.0009088130093148857 0.00565118387032576
91428576 -0.0007789749682563101 0.005631732644263353
91458338 -0.0007345339258880247 0.005607489635925091
91488100 -0.0007726765406067751 0.005584279737511243
91517862 -0.0007705222083151234 0.005563064200640946
91547624 -0.000724969092611517 0.005542423825979393
91577386 -0.0007748185904600859 0.005519231311525605
91607148 -0.0007590792791641769 0.005490397284484973
91636910 -0.0007521297830822795 0.005469867474978588
91666672 -0.0007147510477896915 0.005446761396049317
91696434 -0.0006817209838003315 0.0054665155290974056
91726196 -0.000621336318544305 0.005487832460564415
91755958 -0.0004985732857341091 0.005503661934232773
91785720 -0.00046363968451424575 0.005517714575020178
91815482 -0.0003506476757742728 0.005535218197617905
91845244 -0.000276379784250418 0.005547126563576089
91875006 -0.0002579790928960278 0.005558590167412227
91904768 -0.00026972989118608176 0.005570694873813365
91934530 -8.7801333927312e-05 0.005574116437447406
91964292 -6.163685313774935e-05 0.0055943836947286345
91994054 -2.8369221043417086e-05 0.0056130055910313245
92023816 -0.00017277657531238123 0.005647781625344314
92053578 -6.755206963704717e-05 0.005665630983367502
92083340 -7.142273852892578e-05 0.005690111805420342
92113102 -4.048770707138857e-05 0.005712010954824129
92142864 -7.476631631193989e-05 0.005740728962331622
92172626 -4.453329870380923e-05 0.005763110101250169
92202388 -0.00018703067783974283 0.005790487269586423
92232150 -9.057360486967543e-05 0.005789024616953672
92261912 -0.0002121764671921085 0.005736124375129102
92291674 -9.574606544671179e-05 0.005684277640925887
92321436 -0.00014534742483710036 0.005632085727504825
92351198 -0.00012981819554539384 0.0055834991205995724
92380960 -0.00017823663864028545 0.005531514183932285
92410722 -0.00019234476782333928 0.005483581408618078
92440484 -0.00017482634522596953 0.0054362900050201335
92470246 -0.0002042098437130298 0.0053868935923667965
92500008 -0.0002292343033229028 0.005337838445081337
92529770 -0.0002378791701680996 0.0053608801495933864
92559532 -0.00021752422529084737 0.005383838062311795
92589294 -0.00030153694863337507 0.005407116589371823
92619056 -0.00023202759158706565 0.005426818145312201
92648818 -0.00023839691834694936 0.005450089966719693
92678580 -0.0002755583665112887 0.0054695216391475385
92708342 -0.0002531983596478215 0.0054948172404880565
92738104 -0.00026204663042201444 0.005513896156785922
92767866 -0.00030048950418188843 0.0055387297737796316
92797628 -0.00027102872052564163 0.005556514838790644
92827390 -0.0002520817155236241 0.005570536798614433
92857152 -0.00022020835683707617 0.005582802832313377
92886914 -0.0002733256274544121 0.005593231993957582
92916676 -0.00013750595869495343 0.005612183387557748
92946438 -0.00013048916403430363 0.005621130640792169
92976200 -9.977943810450243e-05 0.005633556875268258
93005962 -0.00011228371389382177 0.005637924123488521
93035724 -3.4981558813708566e-05 0.005657512826022655
93065486 -6.366908704151724e-05 0.005664446206867407
93095248 0.00011936928300005167 0.005664693109007163
93125010 0.00017707817848869792 0.005660819094296036
93154772 0.00026833922874038566 0.005654053672565036
93184534 0.0002668376990107771 0.00564284945542624
93214296 0.0004219033446099524 0.005633932402093459
93244058 0.0004660241234119616 0.005614370897794921
93273820 0.0005710348304053977 0.0056111915498126145
93303582 0.000543577195188768 0.005640250637378783
93333344 0.0008041624198800035 0.00555380838919802
93363106 0.000719618236082815 0.005578865238100018
93392868 0.0006396413734899014 0.005592607990389436
93422630 0.0005849736881758049 0.0056032691089995465
93452392 0.0005513555758718068 0.005608242777275885
93482154 0.00047327101557143725 0.005614094975206822
93511916 0.0003209297024628126 0.005643221249747279
93541678 0.00039872405055089115 0.005620031999750989
93571440 0.00030439316734890055 0.005618717116988512
93601202 0.000268315537292943 0.005618080418856558
93630964 0.00029184809197968086 0.005617620129057249
93660726 0.0003292301681085746 0.005614870675573591
93690488 0.0002946803474915985 0.005678163247858835
93720250 0.00044950933093443167 0.0056075754078193955
93750012 0.000510502371866525 0.005601328027369467
93779774 0.000591407956788163 0.005595044086720103
93809536 0.0005740721868269878 0.00559149489039715
93839298 0.0006916996612728711 0.005581980048907743
93869060 0.0007549988269221161 0.005572270969130069
93898822 0.000818765787894484 0.005560743940555674
93928584 0.0008183623413451696 0.005541602021210324
93958346 0.0008563803151187986 0.00552283545650325
93988108 0.0008057126928331424 0.005509985896677981
94017870 0.0008758991710709008 0.005489078658662174
94047632 0.0008458433033051022 0.005471364864104269
94077394 0.0009341641199889497 0.005449817365286448
94107156 0.0009342377237752659 0.005434823299865618
94136918 0.0009704531509216039 0.005414718907300307
94166680 0.0009745942653083232 0.005396934710454677
94196442 0.0009885611308326117 0.005664577249140837
94226204 0.0009484561278573212 0.005963522883370865
94255966 0.0010157119562467106 0.006295952684192603
94285728 0.000987484065270108 0.0066663173717903795
94315490 0.0009649709495914184 0.007081904733956118
94345252 0.0009402604135350407 0.0075504851671840826
94375014 0.0008515609417807161 0.008085243467050548
94404776 0.0007590733633917366 0.00869552004265488
94434538 0.0005951216494466472 0.009390930693410203
94464300 0.0006287129093605226 0.009107634022663277
94494062 0.0007974402187254278 0.008402134373131523
94523824 0.0009043063205238464 0.007789877182264739
94553586 0.0009642293049867153 0.007251089105709951
94583348 0.0010348414416211516 0.006775862937518327
94613110 0.0010608788200928213 0.006354358527065181
94642872 0.0010940603001593722 0.005979491096359297
94672634 0.0011246171294379795 0.005641192310790997
94702396 0.0011419362480513163 0.00533398525276096
94732158 0.0011433248163219398 0.005129500860225007
94761920 0.0011694134050405796 0.005073798819811075
94791682 0.001165003702948998 0.005023428815508639
94821444 0.00122009272829958 0.004965395133333983
94851206 0.001214701781827554 0.004915070353564411
94880968 0.001273028549755158 0.004859366835350326
94910730 0.0012849620333557968 0.004805848634199926
94940492 0.0013214363506369549 0.004752221254920376
94970254 0.0013102809011959417 0.004702241412105065
95000016 0.0013552070025585666 0.004648565292457221
95029778 0.001344750091157938 0.004659831914884236
95059540 0.0013804435051623393 0.004674659620916417
95089302 0.0013960898117097588 0.004682676641033306
95119064 0.0014161825270143891 0.004692718749989851
95148826 0.0014080395206166837 0.004704584301457423
95178588 0.0014403792071237462 0.004714698113268792
95208350 0.0014524293572696489 0.004722873421914128
95238112 0.0014759948582755305 0.004732634760404473
95267874 0.0014848731051677051 0.004744495677931466
95297636 0.0015176588898097288 0.004730064843121196
95327398 0.0015438628956623757 0.004712811625981541
95357160 0.0015670995442904926 0.004691740634614858
95386922 0.0016028596840589738 0.004672292111041882
95416684 0.001631173317599018 0.004651158393079734
95446446 0.0016572883297700206 0.004628678858192862
95476208 0.0016900786191746137 0.0046051006914644066
95505970 0.001719162557221329 0.0045811468387156945
95535732 0.0017465871864932806 0.004556263969203216
95565494 0.0017926958371589715 0.004524654274122898
95595256 0.0018485852113547293 0.004489356907337657
95625018 0.0018984424443975923 0.00445111073827249
95654780 0.001956074693480869 0.0044110641228881425
95684542 0.0020131351891824775 0.004369256205873727
95714304 0.002068291250863087 0.004326191488521199
95744066 0.002123281516694801 0.004277545474752357
95773828 0.002171417614082959 0.004236066003011267
95803590 0.0022312900661888378 0.004184449577886306
95833352 0.0022866702798584305 0.004133314764174018
95863114 0.0023122369385929053 0.004052819417341451
95892876 0.002328624610814498 0.003974918365513577
95922638 0.0023555096252823927 0.0038934231330336366
95952400 0.002372883326466104 0.0038146032794503433
95982162 0.002389317136761138 0.0037352634944239575
96011924 0.0020567069350971804 0.0037289116300399288
96041686 0.0024298728396251116 0.0035670948648076927
96071448 0.002446076675088022 0.0034827223180676887
96101210 0.00254824426333554 0.0033366678815218206
96130972 0.002151162895173299 0.0034424172645512595
96160734 0.002519527627183789 0.003293844245514254
96190496 0.0025493873975459065 0.003247174897489435
96220258 0.0025826497415488963 0.003190994704393511
96250020 0.0026112944757555826 0.0031407580221735633
96279782 0.002641557533628361 0.0030830740561899063
96309544 0.0026663680855158246 0.0030291294549068524
96339306 0.0027014179032580523 0.002969733381820908
96369068 0.002729252821713701 0.002903548038720274
96398830 0.002764559805935523 0.002836479341775706
96428592 0.002806081721356606 0.0027547213793175183
96458354 0.0028532585987988226 0.0026685256303159307
96488116 0.003170794554268283 0.0023791296459822918
96517878 0.0029152295012953963 0.0024977279770641656
96547640 0.002950441477557809 0.002415151698419258
96577402 0.0029759162777683494 0.0023191044882542524
96607164 0.0030268025004066695 0.002204004134944798
96636926 0.003281835176104187 0.0018640582490519913
96666688 0.0030647698214981652 0.0020158016288184446
96696450 0.0030426636449890345 0.001905559387623141
96726212 0.0030090631176822044 0.0017983847780294062
96755974 0.00277265199622031 0.0019014534619686046
96785736 0.002963794636144481 0.001550107688182049
96815498 0.0027361031920833767 0.001680440171456665
96845260 0.0028831856826893568 0.0013492504104787673
96875022 0.002850542204887033 0.0012318679920434467
96904784 0.00280173945089681 0.001122002175628157
96934546 0.0027676984381503015 0.0009898815566859265
96964308 0.002730159054961135 0.000899494101690132
96994070 0.0027025300790183226 0.0007982257531372024
97023832 0.0027126917522229477 0.0004101717152160439
97053594 0.0026409696351323312 0.0005922013169113235
97083356 0.0025892520516358577 0.0005017865201921355
97113118 0.002533589310699044 0.0006179543322670541
97142880 0.002521465625420733 0.0002720343014692195
97172642 0.0023923626679141184 -0.0001254236007792803
97202404 0.002413928130306203 5.449807815842433e-05
97232166 0.002360470454514907 -6.933761633746611e-05
97261928 0.0023005609295502533 -0.00019787456820261347
97291690 0.002232817114729659 -0.0003499022485642863
97321452 0.0021585326415432663 -0.0004819245958615727
97351214 0.00209073282120151 -0.0006199152647889206
97380976 0.001998156313826111 -0.0007575340333234689
97410738 0.0018967756128933722 -0.0008889624379794222
97440500 0.0018025726846960808 -0.001026974088083912
97470262 0.0013642297156953274 -0.001303152003793369
97500024 0.0015708953756048659 -0.00127141189025885
97529786 0.001469576612891349 -0.0013949325800418943
97559548 0.0009163590560077936 -0.001581000667848741
97589310 0.0011754139814884217 -0.0016219558655019906
97619072 0.0009870670392299978 -0.0017386178375946907
97648834 0.0009120364372327192 -0.0018408055879011208
97678596 0.0007324735997580844 -0.0019379300395265054
97708358 7.102750313496998e-05 -0.001929277059814559
97738120 0.0003908206051206498 -0.002111342076661904
97767882 0.00024277628127433 -0.002201495032796655
97797644 0.0005285487124968917 -0.0023836078937553447
97827406 -0.0001715388346961044 -0.0022796969195175176
97857168 -0.0004189725653308177 -0.00229298128587223
97886930 -0.000643773901343846 -0.0023076383351816076
97916692 -0.00037042385582421324 -0.0025924464625755386
97946454 -0.0011028948198472965 -0.0022486807343887324
97976216 -0.0008362419811414526 -0.002613199441398556
98005978 -0.0019281494721262496 -0.001579203493719045
98035740 -0.001736056463170743 -0.0020430469912456196
98065502 -0.0018976248575220964 -0.0020209702478533893
98095264 -0.0020375619888520448 -0.0020441370779173003
98125026 -0.0022062524629180764 -0.002042782687060309
98154788 -0.0026523554951333097 -0.0013538271085147702
98184550 -0.002499572998211929 -0.0020855402956360828
98214312 -0.002644013844705915 -0.0020931184043634318
98244074 -0.003038983684539968 -0.001327285719762414
98273836 -0.002900102131033025 -0.0021815745290585348
98303598 -0.003051362353348043 -0.0021435856426014897
98333360 -0.0031818237493778994 -0.0021658006552996776
98363122 -0.003304299305382476 -0.0021364327297075467
98392884 -0.003438997556220413 -0.0020177437247105513
98422646 -0.003550387330471784 -0.0020015336645657867
98452408 -0.0036581809310652805 -0.0019456549884995433
98482170 -0.003771028228600748 -0.0018231797646588673
98511932 -0.0038678774401806493 -0.0017749726746704166
98541694 -0.003996539359444999 -0.0006992560484966138
98571456 -0.004047225248085878 -0.0015709324818888528
98601218 -0.004005476608129826 -0.002431630816700237
98630980 -0.0042418007849795575 -0.0013800668357662556
98660742 -0.004333828085208997 -0.0012208900615840424
98690504 -0.004306572596165625 -0.00016215982278884838
98720266 -0.004522523719740152 -0.0019317894539707416
98750028 -0.004609005149704402 -0.0008204132087588017
98779790 -0.0046677905488168815 -0.0006879849540576255
98809552 -0.004757311993209918 -0.0006052494212514228
98839314 -0.004805519212800196 -0.0004142198065074695
98869076 -0.004885840050906038 -0.0003372722773415043
98898838 -0.005132611862947321 -0.0011000806026731642
98928600 -0.005000991846826544 -9.168905855150769e-05
98958362 -0.005316529800903507 -0.0009186474364976967
98988124 -0.005155406992955554 1.065507332937663e-06
99017886 -0.005172661016474895 0.00024128908995764187
99047648 -0.0052891527189495025 0.00017937775096485867
99077410 -0.005312899687404065 0.0003398011553021828
99107172 -0.005355837158173 0.0004164502911517354
99136934 -0.00545716043372761 0.00041890920939704075
99166696 -0.005508923511136278 0.0004909912272261563
99196458 -0.005514114830023662 0.0005913254407845258
99226220 -0.005447542818768853 0.0007500227244206632
99255982 -0.005557409110464519 0.0006892580538560384
99285744 -0.005425710338444661 0.0008420401627085951
99315506 -0.005590062597335023 0.0007957191923310034
99345268 -0.005603007910772601 0.0008538586699011379
99375030 -0.005540927418688477 0.0009919037553544363
99404792 -0.005618034773893708 0.000956268738830648
99434554 -0.005631925896082932 0.0010027072853435056
99464316 -0.005571441323348763 0.0012019421636501422
99494078 -0.005576245761273299 0.0013066572588808867
99523840 -0.005502751997899404 0.0015363497714090632
99553602 -0.0054698879591007 0.0017044752887276434
99583364 -0.005972971149542368 0.0011744735512594668
99613126 -0.004732976703320216 0.0026328190342658196
99642888 -0.005207162543061646 0.0022063776680355707
99672650 -0.005251300273944799 0.0023047160557949677
99702412 -0.005872944894725114 0.0018196246523970846
99732174 -0.005062441424800192 0.0025843021241696395
99761936 -0.005030735472673879 0.0026647767209705265
99791698 -0.00528985499037636 0.002472241334630738
99821460 -0.005265931654215636 0.0025061212765531134
99851222 -0.005356923110364626 0.0024415227549994672
99880984 -0.0059638160636725805 0.0019012938828841272
99910746 -0.005382831432740968 0.002467883743992799
99940508 -0.006037222393138973 0.0018717536621097887
99970270 -0.005444180352387912 0.0024305711237969027
100000032 -0.005485811315912385 0.0024303444746633495
100029794 -0.005470435653446966 0.0024836834216943196
100059556 -0.0054603106731857245 0.002544986622096892
100089318 -0.00545057635245627 0.002590625081727993
100119080 -0.005430740908220601 0.0026525883648637833
100148842 -0.005419898051364392 0.002701932102838082
100178604 -0.005426892004701505 0.0027627480332092402
100208366 -0.0054070021728567785 0.002815902253251532
100238128 -0.005394395773348678 0.0028709980920785523
100267890 -0.005376797821816344 0.0029178093407586543
100297652 -0.005365385319610793 0.002959346907049795
100327414 -0.005368978164988089 0.003000942785649316
100357176 -0.005361029287794193 0.003045617878587205
100386938 -0.005361007799903071 0.003080392674634999
100416700 -0.005365966954451039 0.003115350480911278
100446462 -0.005358497235718556 0.003154764639346921
100476224 -0.005352566524752884 0.0031852689188661956
100505986 -0.005346701960576358 0.0032202002783994535
100535748 -0.005344883376999507 0.00325032775693236
100565510 -0.005361828431887671 0.003292427714581016
100595272 -0.005404017804885479 0.003343263772147755
100625034 -0.005455086082267112 0.0033964664605245325
100654796 -0.0055028079721019234 0.0034412803291702693
100684558 -0.005554098980640165 0.0034998240630841324
100714320 -0.00560081622932334 0.0035438455342717097
100744082 -0.005655975221973552 0.0035935538068714665
100773844 -0.005700460467936784 0.0036394179069260705
100803606 -0.005765619389110825 0.0036886908668019394
100833368 -0.005823990190187796 0.0037385647805863887
100863130 -0.005758590691519406 0.003775196479843403
100892892 -0.005697019287353123 0.0038048593021216826
100922654 -0.005636064555666756 0.003831032244506406
100952416 -0.005579786155978044 0.00386316344549275
100982178 -0.005517409054140586 0.003891990060825865
101011940 -0.005462591522117927 0.003917645160383692
101041702 -0.005399039459471324 0.003947847973977216
101071464 -0.00533850777884728 0.003974899720533483
101101226 -0.005287498318744542 0.003996045143870257
101130988 -0.005260912322582479 0.004016936244730272
101160750 -0.00525577253679793 0.00402941264028928
101190512 -0.005246135346898082 0.004043843047552053
101220274 -0.005238662369997357 0.004054403641934056
101250036 -0.0052362810067143545 0.004067470071221967
101279798 -0.0052216735031222795 0.0040779450873132785
101309560 -0.005221154736848252 0.0040951766688708535
101339322 -0.005210090395022695 0.004100564308359497
101369084 -0.005209395434411199 0.00411168768586866
101398846 -0.005184045948776385 0.004145790926891673
101428608 -0.005130169313685912 0.004240335680225035
101458370 -0.00508146661911958 0.004324596552092742
101488132 -0.00502745145041426 0.0044141931500448145
101517894 -0.004970507971649753 0.004500736752470238
101547656 -0.0049147647409142495 0.004583326053022312
101577418 -0.004849885686011275 0.004661897157201012
101607180 -0.004788487881978828 0.004738631362325854
101636942 -0.004724424988555227 0.004817936411776567
101666704 -0.0046561214727789514 0.004898945766581518
101696466 -0.004730688915458639 0.004844972766671957
101726228 -0.004803386622249441 0.004790211462606456
101755990 -0.004872839208078583 0.00473264408184426
101785752 -0.0049333850109630935 0.004675212304391476
101815514 -0.005002796384738849 0.004607431340120891
101845276 -0.005061850229772298 0.004541431566931657
101875038 -0.005088048995071882 0.004480632967468934
101904800 -0.005175882589057266 0.004399317227845696
101934562 -0.005227084963336528 0.00432760287593665
101964324 -0.005197528427141425 0.004346768443851939
101994086 -0.005115117379502107 0.004419910654184224
102023848 -0.005011366085701391 0.00448302201663637
102053610 -0.004929474147524177 0.004551202939404847
102083372 -0.0048508951707567395 0.0046163007644907834
102113134 -0.004795302451213217 0.004673673777150457
102142896 -0.004680930722957925 0.004740164088432446
102172658 -0.004593019962140978 0.004803292785367838
102202420 -0.004572541670461871 0.00485049405275105
102232182 -0.004503576765552062 0.004896796487744238
102261944 -0.004585599287943232 0.0049142639114545935
102291706 -0.004663427150820903 0.004940337517524877
102321468 -0.004756048015682837 0.004952097619921803
102351230 -0.004847335080382729 0.0049682657988236595
102380992 -0.00493133004059207 0.004985737993901556
102410754 -0.005025268758748209 0.004997392751149554
102440516 -0.005117444330877661 0.005006486874371844
102470278 -0.005215354365588295 0.005005730176573575
102500040 -0.005322302178814637 0.005008552056126257
102529802 -0.005256763411629379 0.0050514991435946935
102559564 -0.005200355253378552 0.0050837248596056865
102589326 -0.00514303923970613 0.005110085974561722
102619088 -0.005087934557078513 0.005141870337198533
102648850 -0.0050303031336629426 0.0051783283614503075
102678612 -0.004975649209884536 0.00520251401954383
102708374 -0.00491491972448663 0.005235871333838887
102738136 -0.004855559738862942 0.005261393920309026
102767898 -0.004806110031066515 0.005288269141389198
102797660 -0.004771632125189242 0.005286152390375388
102827422 -0.004742358463024431 0.005265834205106797
102857184 -0.004721305547251057 0.005243814627305263
102886946 -0.004710965791270981 0.005219139281588909
102916708 -0.004683609681692201 0.00520241890174443
102946470 -0.0046612140964098 0.005183204960191783
102976232 -0.004643102301898873 0.005158119396128798
103005994 -0.00462244661595798 0.005140601624689389
103035756 -0.004604017273795415 0.005123152257507459
103065518 -0.0045818906816152746 0.005114185499117485
103095280 -0.004588304598703304 0.005150500664163677
103125042 -0.004590211040917764 0.00518392497211201
103154804 -0.00459152000529838 0.00520869459970386
103184566 -0.004592179130703338 0.005240002132086151
103214328 -0.004601562340953135 0.005271436753383671
103244090 -0.004594367330483035 0.005304491016141587
103273852 -0.004605569883896287 0.0053332064339120045
103303614 -0.0046006714365092955 0.005364020032817342
103333376 -0.004610417909456577 0.005403106124121621
103363138 -0.004516895331626282 0.005410346986249857
103392900 -0.004428844328152933 0.005418481056774559
103422662 -0.0043394796553475916 0.00543226000030961
103452424 -0.004248754708964791 0.005438121834152386
103482186 -0.00416386807094257 0.005440815366574698
103511948 -0.004078206139747384 0.005448236041565893
103541710 -0.003990760718477921 0.005448746117689242
103571472 -0.003993589532193182 0.00545072765591533
103601234 -0.0038214050051255037 0.00545479341963708
103630996 -0.003820166862826339 0.00545488350780463
103660758 -0.003862301934291015 0.005441412369644949
103690520 -0.003909800830195956 0.005433446974488227
103720282 -0.003951939108091366 0.0054305993336279884
103750044 -0.003988329313301752 0.00541032946195531
103779806 -0.004034001826171095 0.0054080442849681045
103809568 -0.00407838538632249 0.005397094258424182
103839330 -0.004116398926048228 0.005383823941496356
103869092 -0.004160238824785413 0.005373276158918573
103898854 -0.004200330331451339 0.005368861911214171
103928616 -0.004239996645348414 0.005394941115324252
103958378 -0.004488782562126485 0.0053890244657384114
103988140 -0.004317904407941864 0.0054341229517315725
104017902 -0.004360121834774441 0.005458667620372889
104047664 -0.004405756762749622 0.005480121518887126
104077426 -0.004447956434671725 0.005499210313151624
104107188 -0.004460260954932713 0.00552433746255297
104136950 -0.004497929049120499 0.005541468111086937
104166712 -0.004543525116155185 0.005566704916236239
104196474 -0.004534274485514761 0.005607536631349973
104226236 -0.004531554659693267 0.005657329938779836
104255998 -0.0045177378099981414 0.005705949583476001
104285760 -0.004534239771871643 0.005757240375818542
104315522 -0.0045295637925451635 0.005803009562685316
104345284 -0.004515814900307712 0.0058582371828363585
104375046 -0.004504402586240917 0.005906835769675766
104404808 -0.004494372611672411 0.0059610355785850375
104434570 -0.004477873359214361 0.006010060383110597
104464332 -0.004463991099723758 0.005997402963876624
104494094 -0.004448495809311358 0.005936181904228573
104523856 -0.004435180846015923 0.005885701716171484
104553618 -0.00442091346434768 0.005835170751077105
104583380 -0.004402503901878736 0.005784812656678689
104613142 -0.004386232487923954 0.005736764331414841
104642904 -0.004370225037841936 0.005691262489569811
104672666 -0.004439686038477209 0.005633333567005828
104702428 -0.004339126307751141 0.005590949331892721
104732190 -0.004317870579803556 0.0055866173842062114
104761952 -0.0043057319644243305 0.005661558072210246
104791714 -0.004288285135129057 0.00573280168196399
104821476 -0.004274826799933872 0.005817305620610283
104851238 -0.004261909518763396 0.005896625723976529
104881000 -0.004244590934891448 0.0059702620699267255
104910762 -0.004225103266202017 0.006050767246684639
104940524 -0.0042021380279166545 0.0061331561742649044
104970286 -0.004183751172930422 0.00621695921069216
105000048 -0.00415961280121639 0.00629857991384138
