# HZ S RI R 50
90000000 -0.0009412067598716731 0.005515755781226326
90029762 -0.0009130460991162985 0.005548099454551536
90059524 -0.0011602726956004387 0.0055740014385983454
90089286 -0.0010234677547937795 0.005613102347762661
90119048 -0.0012189796447265254 0.005638300298253756
90148810 -0.0010523013861748391 0.00567071054473078
90178572 -0.0010822531944311244 0.005704202312454392
90208334 -0.0011282749262284146 0.005758372519259955
90238096 -0.0013117182186061708 0.005763506116829565
90267858 -0.0012173031531690114 0.005817078988518055
90297620 -0.0012085576322319747 0.005797115228617551
90327382 -0.0011612224475028893 0.005764732741535423
90357144 -0.001154425842300666 0.005708315768932806
90386906 -0.0010740321397431775 0.005669756262559647
90416668 -0.001256373266478669 0.005616677958043345
90446430 -0.0010759349736733103 0.005582776740045068
90476192 -0.0010002291205274605 0.0055413465902041876
90505954 -0.0009752792273245998 0.005502659579719218
90535716 -0.0010014534499593489 0.005458093357656722
90565478 -0.0009228941913876004 0.0054411129598977955
90595240 -0.0009380379974375465 0.00545394279214372
90625002 -0.0009030755477345279 0.005471272094761621
90654764 -0.0008205964394281844 0.005487023573567141
90684526 -0.0007857941672084879 0.005506012792871536
90714288 -0.0007961687511814733 0.005518084066286514
90744050 -0.0007614534045051432 0.005531950784017461
90773812 -0.0006784411608052514 0.005549069614796098
90803574 -0.0006871857689492123 0.005562431270898493
90833336 -0.0006065219473237847 0.005577012631243512
90863098 -0.0005811921371491579 0.005553386826909862
90892860 -0.0006036079082324809 0.005531828399122572
90922622 -0.0005350597051790609 0.005510417459391891
90952384 -0.0005149409983302697 0.005488729815817657
90982146 -0.0005347610536531239 0.005465679341281523
91011908 -0.0004701763603069086 0.005443505332559523
91041670 -0.0004887282013223308 0.00542348537311395
91071432 -0.00046929157818927845 0.005399295302991165
91101194 -0.0005747535851643555 0.0053824464221098505
91130956 -0.0004331051261423299 0.0053937585094929975
91160718 -0.0004763980499021745 0.0054220494568452005
91190480 -0.000541059242066315 0.00545782657953045
91220242 -0.000669246055510814 0.005484563091832247
91250004 -0.0006116859994750902 0.005521386280425178
91279766 -0.000741071146056967 0.005542043440055121
91309528 -0.0006429452437363076 0.005583416702440159
91339290 -0.0006871991620517515 0.005607476936364551
91369052 -0.00070212247297378 0.005639613780035403
91398814 -0.0008950417766022757 0.005648326308215716
91428576 -0.0007665071938496251 0.005627874131689412
91458338 -0.000724712416788328 0.005604800254184587
91488100 -0.000760219540603213 0.005580229469287914
91517862 -0.0007539221278126568 0.0055541919209418375
91547624 -0.0007139806585212121 0.005536462880290606
91577386 -0.0007105380346476489 0.005511324365747697
91607148 -0.0007463862158472482 0.005487588536568292
91636910 -0.0007429780145575762 0.005464386575000899
91666672 -0.000699764672359669 0.005441750847867139
91696434 -0.0006689948203478513 0.005460731233198587
91726196 -0.0005596641208755089 0.0054803418403990296
91755958 -0.000487397519899792 0.005496877068451645
91785720 -0.00045217619920303725 0.005513156090424003
91815482 -0.0003374314440895392 0.005526173508401659
91845244 -0.0002641294085908615 0.005540261066624551
91875006 -0.00022477664970757725 0.005549373227785868
91904768 -0.00025510725775491954 0.00556383572377411
91934530 -7.27328849284689e-05 0.005567801871389402
91964292 -4.8949205816330716e-05 0.005585912433580761
91994054 -1.557072708489482e-05 0.005607901184654672
92023816 -0.00015717627224150327 0.005637965150271678
92053578 -5.3911826227770675e-05 0.005657436583070286
92083340 -5.715350823091388e-05 0.005682119015150649
92113102 -2.626816726230799e-05 0.005704846910418456
92142864 -6.0945730655859966e-05 0.005730560555346067
92172626 -3.006854943986133e-05 0.0057542911610773346
92202388 -0.00017337393232136597 0.0057845042862695725
92232150 -7.494833843934429e-05 0.005781578406183082
92261912 -0.00019670746114386939 0.00573076771217634
92291674 -8.240607276130087e-05 0.005677185867288013
92321436 -0.0001301794198230524 0.005626833725711891
92351198 -0.00011446750487006465 0.005574254954136497
92380960 -0.00016202965590052186 0.005525231439299989
92410722 -0.00017585284383600413 0.005475803901291242
92440484 -0.0001598864753908076 0.005426806923053072
92470246 -0.00017404941477691552 0.005380609348569622
92500008 -0.00021514300933835214 0.005331986850761169
92529770 -0.00022064167823023192 0.005354030415641472
92559532 -0.00020034251932976122 0.005374033145695489
92589294 -0.00023495029832883643 0.005396560449822038
92619056 -0.0002145017411596993 0.005420551617172337
92648818 -0.00021962009527726163 0.0054414214462528716
92678580 -0.0002563518631226601 0.0054623827795010245
92708342 -0.0002368494664910022 0.0054870634886350625
92738104 -0.00024415361729529734 0.0055074603269403034
92767866 -0.0002812111173448895 0.0055309490029724065
92797628 -0.00023754783863372635 0.005549123017024317
92827390 -0.0002342499736864897 0.005559568356025882
92857152 -0.00020311691726406715 0.005572767320593528
92886914 -0.00025376592552118306 0.005584243813461632
92916676 -9.866385342076034e-05 0.005595629597694162
92946438 -0.00012718297984766456 0.005613436889835082
92976200 -6.402707696380672e-05 0.005622197874654929
93005962 -0.00019289636231788394 0.005649733290064133
93035724 -1.584436534869234e-05 0.005648754205050413
93065486 -4.3467136320442004e-05 0.005653285074765393
93095248 0.00014185994009352347 0.005651294906636683
93125010 0.00019949693822671476 0.005645080857263773
93154772 0.0003059537342975198 0.005640655831645327
93184534 0.0002536773515867561 0.005639114994884277
93214296 0.00041540904022851214 0.00563134505105919
93244058 0.0004555112898832879 0.005611188080454308
93273820 0.0006417212406058077 0.005578971282283984
93303582 0.0007082108703128871 0.005571080097974997
93333344 0.0008127025658659811 0.005545689451624094
93363106 0.0006922138670608638 0.005586813634423339
93392868 0.0006469319730040872 0.005582042055673672
93422630 0.0005750833356393735 0.005593402059699377
93452392 0.000575861531366831 0.005593852079467287
93482154 0.0004970763603040714 0.005599049224791189
93511916 0.0004476968084454272 0.005604968057583676
93541678 0.0004075741256456846 0.005606183777298999
93571440 0.0003311971447225231 0.0056037024628414955
93601202 0.00032873104789780244 0.0055979586104683045
93630964 0.00031519108706911715 0.005600871441693847
93660726 0.00035808658776901133 0.005596724624671617
93690488 0.0004383152655815821 0.005593692082783174
93720250 0.0004774487893505294 0.0055902374675587205
93750012 0.0005382088678326733 0.005585354919302965
93779774 0.000619464533314071 0.005577187969952331
93809536 0.0006030978360579199 0.005570707036440971
93839298 0.0007225601471903338 0.00556199224772892
93869060 0.0007812010474306006 0.005551508548648658
93898822 0.0008483300310631972 0.00553794284635623
93928584 0.0008475102405278791 0.0055211379308305235
93958346 0.0008851756501102675 0.0055014298531002445
93988108 0.0008345617667785195 0.0054864310589684585
94017870 0.0009054895707840485 0.005465007030154226
94047632 0.0008748053033654243 0.005450775579307649
94077394 0.000963212291218693 0.005428634896888445
94107156 0.0009645918819882485 0.005409582100157963
94136918 0.0010028089388052627 0.005390352646047749
94166680 0.0010058650204977882 0.0053720158479672675
94196442 0.0010207409854282403 0.005637902679714158
94226204 0.0009829901745350119 0.005939094230110401
94255966 0.0010538562706993433 0.006265158976443659
94285728 0.0010300198441031804 0.006633103199739824
94315490 0.0010098110265873521 0.007049548030540102
94345252 0.000989617206244337 0.007511512010942761
94375014 0.0009042787393564296 0.008039937629872387
94404776 0.0008204161730196865 0.00865008577602633
94434538 0.0006615141966617223 0.009343283123222808
94464300 0.0006952086348165279 0.009064062427229763
94494062 0.0008555252801931034 0.008358160581261957
94523824 0.0009563422605910705 0.007749313229426773
94553586 0.001014565040294183 0.007209852817081555
94583348 0.0010850745820536036 0.00673243481264265
94613110 0.0011111634997527104 0.006315612194419628
94642872 0.0011397921534095651 0.005940982592323834
94672634 0.0011692463477190411 0.005602269239496259
94702396 0.0011796723609955248 0.005297414598087577
94732158 0.001184063803226581 0.005091873440682727
94761920 0.001207683669456105 0.005035971024966047
94791682 0.0012042619560283757 0.004982714349542552
94821444 0.0012543194180090447 0.004926917991189117
94851206 0.001254325107326774 0.004873106793031444
94880968 0.0013123581035558568 0.0048161087308447115
94910730 0.0013275152246691802 0.004764106465286675
94940492 0.0013575506729503657 0.004709525412376518
94970254 0.0013469477178192455 0.004656629731253077
95000016 0.0013951164120332362 0.004601098316833569
95029778 0.0013882209854219302 0.004613729088309247
95059540 0.0014228215486046354 0.004622635883882194
95089302 0.001437027794986601 0.004633070854055623
95119064 0.0014582064885672297 0.004641850528387923
95148826 0.0014466014060565647 0.0046515599354545354
95178588 0.001483699743258149 0.004661976169944227
95208350 0.00149675619854982 0.004666804798746447
95238112 0.001521030265871885 0.00467343505889445
95267874 0.0015294780221298161 0.004683511205440662
95297636 0.0015608236786733831 0.004669355223239653
95327398 0.0015916088745998663 0.004649490196215855
95357160 0.001615492467873003 0.004629168096727466
95386922 0.0016482548929452998 0.004604015172864218
95416684 0.0016774317710839448 0.004582408537241558
95446446 0.0017045120155679341 0.004559690192448591
95476208 0.0017386925933343636 0.0045304116250237695
95505970 0.0017656708479532512 0.004507390071085619
95535732 0.001792504583507659 0.004478510743085551
95565494 0.0018409824938543453 0.004447163915103086
95595256 0.001893094808498784 0.004406655658022228
95625018 0.0019469272286652278 0.004364830605100758
95654780 0.0019998362951010786 0.004321672966156362
95684542 0.002059817757896495 0.0042785355049670334
95714304 0.0021125813569531048 0.004233848408680223
95744066 0.002166802901833122 0.0041816880890851805
95773828 0.002215317167556211 0.00413580640184127
95803590 0.0022757153982097857 0.004079524948173094
95833352 0.002328902474922765 0.004027418749498197
95863114 0.0023533265129686695 0.00394372931641481
95892876 0.002374124215026339 0.003864160646572631
95922638 0.002390393823821603 0.0037794067625295962
95952400 0.0024065599716093108 0.0036982336016512076
95982162 0.0024200215759141025 0.0036140126261377543
96011924 0.002090631783215403 0.0036162614942913595
96041686 0.0024552604317904002 0.003442824007655886
96071448 0.0024690174865295697 0.0033581245145210786
96101210 0.002536022086738879 0.0032446791530756306
96130972 0.0021804169999815127 0.003316399975854873
96160734 0.002534216208078224 0.0031626636061837894
96190496 0.0025620003439382555 0.0031042325181568744
96220258 0.002579270444331792 0.0030551443445306255
96250020 0.002644204845077804 0.0029783904730220595
96279782 0.0026560837592000223 0.002924250861161628
96309544 0.0026710727613483165 0.002878116068809597
96339306 0.0027087266869685934 0.002799490323021364
96369068 0.002720585110854954 0.0027461195483359964
96398830 0.0027775690285973156 0.002649517678673852
96428592 0.0027916464787683076 0.0025913616733399293
96458354 0.002818790353532498 0.002507594204234313
96488116 0.0031228171060002892 0.002194160628796384
96517878 0.002887773817599199 0.00232099293034157
96547640 0.002916069632963186 0.002222490809886958
96577402 0.0029393969048971246 0.002129462114708412
96607164 0.0029595322234495297 0.0020252529392810878
96636926 0.003228055269346833 0.0015743720575334605
96666688 0.0029909204916032358 0.001821335196307915
96696450 0.002965996739641302 0.0016966111627991533
96726212 0.0029258223863236083 0.0015938441667616887
96755974 0.002714415727929687 0.0017008968208414076
96785736 0.0028523464316925077 0.0013702710535659114
96815498 0.002652383291082803 0.0015021588031995717
96845260 0.0027703216535483817 0.0011425730719606853
96875022 0.002724066587949566 0.0010377949181728792
96904784 0.0026760175216674962 0.0009277924322091578
96934546 0.0026312420576226642 0.000790346168074328
96964308 0.0025879703380936865 0.0007030414542556434
96994070 0.002550861860477876 0.0005983810837237343
97023832 0.0025048115727091726 0.000229130122866724
97053594 0.002468336683293419 0.00039944032014895036
97083356 0.0024123035472367414 0.0002953156720505336
97113118 0.002381897981313322 0.00040666286243035827
97142880 0.002312681881357481 8.464986691541368e-05
97172642 0.0021405907986238896 -0.00026892039083112036
97202404 0.0022008877220019395 -0.00013295778838956656
97232166 0.002119003811734741 -0.0002501091979187342
97261928 0.0020501296372283004 -0.00038163206895652703
97291690 0.0019783135741914845 -0.0005122894100545818
97321452 0.0018867860385449245 -0.0006336015224922457
97351214 0.0017993841427594384 -0.0007540641037659515
97380976 0.001713593888107586 -0.0008845316012608188
97410738 0.001598861197306056 -0.001001376033893615
97440500 0.001485790886576504 -0.0011144266501902874
97470262 0.0010237265734964584 -0.0013174271026378413
97500024 0.0012442782380786604 -0.001327260412490537
97529786 0.001145365716671416 -0.0014418522978002213
97559548 0.000574128458203753 -0.0015355302039222782
97589310 0.0008365407412904161 -0.0016396722477170533
97619072 0.0006545308911817236 -0.001735048369601103
97648834 0.0005623472889131414 -0.0018125310501558092
97678596 0.00039247514530389444 -0.0018909406552338188
97708358 -0.00025007515323539344 -0.0017954843893785823
97738120 7.02508570953047e-05 -0.002034097483495498
97767882 -0.00011353239403149496 -0.0021002255345632923
97797644 0.00017489182440772982 -0.002324089255780464
97827406 -0.0004983368196778591 -0.002148525061222139
97857168 -0.0007470239140012836 -0.002134334057826341
97886930 -0.0009479775686990947 -0.002103221268092944
97916692 -0.00070314722160665 -0.0024501225553549013
97946454 -0.0013644731192295886 -0.001997794817816627
97976216 -0.0011253091273959882 -0.0023988554786676572
98005978 -0.002060098645159054 -0.001313312229486553
98035740 -0.0019196452310464868 -0.0017768637508373806
98065502 -0.002077610126077641 -0.0017515697004352444
98095264 -0.0022154822462606724 -0.0017669132401527566
98125026 -0.0023601854969278763 -0.0017433635259933985
98154788 -0.0027267593901254016 -0.0010710700539094712
98184550 -0.002622327242852389 -0.0017721395383602325
98214312 -0.0027511634046773043 -0.0017803755118781259
98244074 -0.00308850303785843 -0.001029983477770668
98273836 -0.0030002288212579932 -0.001862914225157857
98303598 -0.0031359931827774513 -0.0018238052565669551
98333360 -0.0032615265653578858 -0.0018362680770757445
98363122 -0.0033622719570479916 -0.0018211442955236522
98392884 -0.0034823153902223763 -0.0017179279982389938
98422646 -0.00357712548864444 -0.0017032238425424106
98452408 -0.0036742375473308307 -0.0016379540984116092
98482170 -0.003759141307864959 -0.001513593399804495
98511932 -0.0038543356189195536 -0.0014800331739396252
98541694 -0.00392417682798855 -0.00047488483433690486
98571456 -0.004008580296043153 -0.001299106050946615
98601218 -0.00399310261528342 -0.002126388110010842
98630980 -0.0041778454035286 -0.0011154573272925791
98660742 -0.004237133074393352 -0.0010064255863827362
98690504 -0.004193381256851576 -3.000006977508306e-06
98720266 -0.00447338034707081 -0.0016726518388445913
98750028 -0.00449642903351708 -0.0006188088295076972
98779790 -0.004554184084221746 -0.0004893881815802228
98809552 -0.004633474623360732 -0.0004117259806147386
98839314 -0.004681445005839842 -0.00024901211843655495
98869076 -0.004751646102958886 -0.0001648544923376656
98898838 -0.0049995022574832034 -0.0009032959646876444
98928600 -0.004836804939239887 5.988215506316061e-05
98958362 -0.005156419776545236 -0.0007374209262864732
98988124 -0.004979749312590165 0.00017181673292881455
99017886 -0.005070517564152184 0.0002928939430336186
99047648 -0.005128320096425648 0.00030396681396784633
99077410 -0.005159370693114444 0.00044137155341400877
99107172 -0.005220515806098907 0.0005193979006884019
99136934 -0.00529795732211918 0.0005158001518629578
99166696 -0.0053501819654217676 0.000595732277930553
99196458 -0.005309128097229936 0.00073884540409876
99226220 -0.00533523291637441 0.0007833535949129094
99255982 -0.005406451814240585 0.000745554786141089
99285744 -0.005235917065519533 0.0010254860276611721
99315506 -0.0054112811371632465 0.0008804481580953478
99345268 -0.005424891711862546 0.0009143911327558134
99375030 -0.005368099216563342 0.0010504171732922047
99404792 -0.0054198464528076 0.0010416133386044989
99434554 -0.005432105798080644 0.001072375568331937
99464316 -0.005374013055781658 0.0012614716381321785
99494078 -0.005477678128878783 0.001290191590345964
99523840 -0.005373918450691999 0.001534132624960346
99553602 -0.0053366139346741615 0.0017015746282437233
99583364 -0.005838457178557795 0.0011808383779699726
99613126 -0.004638181318286447 0.0025969364751828533
99642888 -0.0051982060628240475 0.002133641794892431
99672650 -0.005144828483145862 0.002275150845565633
99702412 -0.005722385466765231 0.0017995522633445942
99732174 -0.005060046917310877 0.0024990866380666514
99761936 -0.004934192290358508 0.0026315132620896298
99791698 -0.005191542710208402 0.002427903898398074
99821460 -0.005179728869787916 0.0024604180076571156
99851222 -0.005272558594019282 0.002392993923210109
99880984 -0.005850545150151892 0.0018552991433123795
99910746 -0.005288448158454134 0.00241382256855223
99940508 -0.005932706364837849 0.0018198493413780848
99970270 -0.005363004126072161 0.00237434221820067
100000032 -0.005391164586917623 0.002376345881018517
100029794 -0.005382393232041962 0.0024188611136243877
100059556 -0.005378284750233496 0.002473747482492744
100089318 -0.005368377285769755 0.0025355180207016566
100119080 -0.005368917204974446 0.0025871040539807892
100148842 -0.005354128997369283 0.0026320561211704307
100178604 -0.00534144535027681 0.0026890983785766297
100208366 -0.005340412552744277 0.0027361421440999724
100238128 -0.005321258368898285 0.002790636138828705
100267890 -0.005319611622968724 0.002837711740797643
100297652 -0.005313115653361694 0.0028817540296470455
100327414 -0.005314917091657503 0.002905344929189454
100357176 -0.005316011205662834 0.0029581136729468264
100386938 -0.005311452251679593 0.0029934161867751583
100416700 -0.005306235226680235 0.0030268025138415915
100446462 -0.0053095953050971735 0.0030588680309638593
100476224 -0.005307280129841618 0.0030877158111285597
100505986 -0.005307947629904556 0.003119074013906825
100535748 -0.005301200050574746 0.0031588948689303914
100565510 -0.0053195458007528 0.0031931044393487323
100595272 -0.005356806823051008 0.003245055877646644
100625034 -0.005421325022411409 0.003287684035142661
100654796 -0.005458808233852882 0.0033289393004032808
100684558 -0.0055232519962898335 0.0033833860397555543
100714320 -0.005568411635990082 0.0034279811715115216
100744082 -0.005628969701683616 0.00346987961870248
100773844 -0.005682599459384869 0.0035198783964656474
100803606 -0.005735988471003572 0.003571816137355241
100833368 -0.005800723731424842 0.0036098137791727362
100863130 -0.005738076570717177 0.003641498859699685
100892892 -0.005680703191613375 0.0036757884138688707
100922654 -0.005624714088365332 0.0037059963026715593
100952416 -0.005570097983873136 0.0037362195815251187
100982178 -0.005512179981308168 0.003762864529654481
101011940 -0.005457182475077725 0.0037872106376069903
101041702 -0.005410015275703013 0.0038121482838609244
101071464 -0.005347025016540678 0.003843167720029291
101101226 -0.005291785060021475 0.003867306725281038
101130988 -0.005272833047165143 0.00388605292089434
101160750 -0.00527291202354493 0.0038959287153756037
101190512 -0.005269973118528503 0.003911529491837035
101220274 -0.005264833210781293 0.003916420895833648
101250036 -0.005254800315146944 0.003936173199884621
101279798 -0.005263077501825352 0.003942307429879725
101309560 -0.005250437019727797 0.0039544598886048455
101339322 -0.0052460257609235564 0.003960849315071622
101369084 -0.005246638798470808 0.003973124212261259
101398846 -0.005229984499733657 0.004015271156730959
101428608 -0.005188222854813055 0.004096830806845851
101458370 -0.005141815856610258 0.004182820547471148
101488132 -0.0050920006630946835 0.004272377831348016
101517894 -0.005034544739763663 0.004363449593841834
101547656 -0.004982621087016969 0.004445711136299308
101577418 -0.004928758574875425 0.004533646171434905
101607180 -0.004879022806484528 0.004608559407968075
101636942 -0.0048170900547172 0.00468481359366795
101666704 -0.004755377169324509 0.0047675996371145
101696466 -0.004830815601461899 0.004719624358080399
101726228 -0.00490069882639556 0.004665803864963578
101755990 -0.004970499050303867 0.004609852480108283
101785752 -0.005038901970740243 0.004547823344654304
101815514 -0.005107955235931837 0.0044867050111961
101845276 -0.005171752207116982 0.0044223591093910915
101875038 -0.005232035699733464 0.004345731426238908
101904800 -0.005287303971172648 0.00427910490835317
101934562 -0.00534562853908847 0.004200989965778012
101964324 -0.0053130790891455625 0.004225796970967604
101994086 -0.00523555719851463 0.004305865526060645
102023848 -0.005074608301941066 0.004487651931619829
102053610 -0.005061894761033703 0.0045596387744413925
102083372 -0.004979368023331524 0.004626983440181605
102113134 -0.00489351297354173 0.004694539032146515
102142896 -0.004804930717839655 0.004753787421901263
102172658 -0.004729232573814824 0.00482170213153683
102202420 -0.00464452022942246 0.0048688081651169675
102232182 -0.004645746647784696 0.0049165650678344806
102261944 -0.0046334698459077695 0.004936922461598655
102291706 -0.004781876467056119 0.004958765512654856
102321468 -0.004965207787880321 0.004982089041560501
102351230 -0.004891938103428101 0.004993603384944665
102380992 -0.00511651884374493 0.005008313825259281
102410754 -0.00514493654181884 0.0050220585861420275
102440516 -0.005246006204064967 0.005036528767203877
102470278 -0.005243340701130913 0.005049372544695932
102500040 -0.005410765764420298 0.00504980091839637
102529802 -0.005390956496435517 0.005073628225930374
102559564 -0.005323200171582302 0.0051203356525741745
102589326 -0.005270229940150951 0.005155214208067945
102619088 -0.005212392083509914 0.005189730715779504
102648850 -0.005160683061569213 0.0052231733136186625
102678612 -0.005064454955209944 0.005255750616871552
102708374 -0.005043371913298995 0.005286257166593068
102738136 -0.004985627731372459 0.005320883037998024
102767898 -0.004929463342077522 0.005343692021920589
102797660 -0.004887104589246241 0.0053451925023936375
102827422 -0.004871704068083416 0.005324605820257035
102857184 -0.004877235253224979 0.0053005758450343984
102886946 -0.004827340984042897 0.005295099433046511
102916708 -0.004802669126448872 0.0052759277734526835
102946470 -0.004783190065390259 0.005258840421474981
102976232 -0.0047629332447238016 0.005242547025520714
103005994 -0.004743288926812018 0.005218238352103317
103035756 -0.00471803141068266 0.0051988018728987145
103065518 -0.00470664598824346 0.005204805239263332
103095280 -0.004706706784399823 0.005238873362432245
103125042 -0.004706509334431764 0.00526603346805884
103154804 -0.0047106169962592105 0.0053010104007694195
103184566 -0.004715780784258131 0.005333421513740048
103214328 -0.0047161936020622 0.005367948508804571
103244090 -0.004720735696141319 0.00540942348346829
103273852 -0.004720166410365207 0.005445033594226751
103303614 -0.004723018124805556 0.005475032919703924
103333376 -0.004725610405204898 0.005506514870791476
103363138 -0.0046263795166723645 0.005526972558339032
103392900 -0.004531113602125772 0.005541254319188569
103422662 -0.00443878124172928 0.0055500050932134615
103452424 -0.004345375041894917 0.005562498759796363
103482186 -0.004252515379678468 0.005566178039561661
103511948 -0.004169187494509889 0.005575630584829116
103541710 -0.004075542305579809 0.005579438932753393
103571472 -0.0039884553177647495 0.005584878782158438
103601234 -0.0039033146992873222 0.005581100796107085
103630996 -0.0038993517725515324 0.005583100489500324
103660758 -0.003934619576400607 0.005579794084356974
103690520 -0.003980946327183149 0.005567959577679479
103720282 -0.004024748827857397 0.005563717319852545
103750044 -0.004066792162315772 0.00555973591805001
103779806 -0.004106331719989396 0.0055487222748851804
103809568 -0.00414518637050975 0.005543218365426394
103839330 -0.004187348087697003 0.005526925505123196
103869092 -0.004230558367532832 0.005513417050734439
103898854 -0.004269706226279932 0.005509681425669345
103928616 -0.004306670593649251 0.0055364287668633865
103958378 -0.004343901628004359 0.005559485639768051
103988140 -0.004380551870223092 0.005583832151458566
104017902 -0.004424105798544724 0.005614894846743962
104047664 -0.00446267994242136 0.005630483331334366
104077426 -0.004502740157677066 0.005654436612658725
104107188 -0.004540767800639759 0.005678631265647089
104136950 -0.004588947652607638 0.005699802209215493
104166712 -0.004626655934790586 0.005719965566966075
104196474 -0.0046202584130495255 0.00577137688949947
104226236 -0.004606248499339325 0.005818320948549159
104255998 -0.004589405332187428 0.005871409398780012
104285760 -0.004576333153208894 0.005923887378181162
104315522 -0.004558918466298703 0.005971595494339732
104345284 -0.004543993588524366 0.006022184276712283
104375046 -0.004538016346148475 0.006073882357874121
104404808 -0.00451911860525921 0.00612547297296787
104434570 -0.00450409824636346 0.0061772851020467125
104464332 -0.004481402392935183 0.0061566761723652495
104494094 -0.004462837274809628 0.006102932060772845
104523856 -0.004451612921337505 0.0060516048862601915
104553618 -0.004434291268174019 0.005997278810077408
104583380 -0.004411898039675625 0.0059456817761284345
104613142 -0.004399216647033136 0.00589604136613868
104642904 -0.004376686960793858 0.005850698437766371
104672666 -0.0043542740106910505 0.0057952328683899094
104702428 -0.004337461358227653 0.0057456455625048775
104732190 -0.0043188315822854165 0.00574012353564945
104761952 -0.004301654240186138 0.0058131908349056466
104791714 -0.004286375858366033 0.005893918237742526
104821476 -0.004265314083441627 0.0059668514708524165
104851238 -0.0042440779808217925 0.006045154552844465
104881000 -0.004228216395655577 0.0061256350140565866
104910762 -0.0042007096595139334 0.006204135269049074
104940524 -0.004176305002326435 0.006290080312929863
104970286 -0.004152869014960928 0.006370182159199492
105000048 -0.004122873985115633 0.006448073357121519
