# HZ S RI R 50
90000000 -0.0009334343257784113 0.005511339727246324
90029762 -0.0009056855970818879 0.005546461164571244
90059524 -0.0011530837956964127 0.005570364891455093
90089286 -0.0010174468562940567 0.005612016593483161
90119048 -0.0012130261653455687 0.0056373480523675525
90148810 -0.0010783322982334622 0.005678149975928029
90178572 -0.0010918079940786425 0.005710245058715546
90208334 -0.001066977363251381 0.005744884117107523
90238096 -0.0013222387873192789 0.005767715370488167
90267858 -0.0011913535058590049 0.005808868681844529
90297620 -0.0011846931592271635 0.005791969384375271
90327382 -0.0011012546855680492 0.0057501352424002
90357144 -0.001129074678762486 0.005703918642521863
90386906 -0.0010670343881245155 0.00566712709313414
90416668 -0.001250366901819393 0.005614627702186666
90446430 -0.0010682614755809703 0.0055793402337042
90476192 -0.0009932345704534713 0.005542777925983053
90505954 -0.0009682424482628752 0.0054994785836820935
90535716 -0.0009929668440568687 0.005456776136752192
90565478 -0.0009160734514557594 0.005437132860324114
90595240 -0.0009310280882774691 0.005452295001907657
90625002 -0.0008938434498941768 0.005468967439429207
90654764 -0.0008106422573070366 0.0054838582189667175
90684526 -0.0007772048713839474 0.0055006852331028755
90714288 -0.0007877326406541019 0.005513337569165249
90744050 -0.0007497434513232206 0.005529715022859136
90773812 -0.0006696851784928871 0.0055444061316225444
90803574 -0.000679919626294749 0.005557608440019243
90833336 -0.0005979264171566153 0.005574431928758872
90863098 -0.0005718111210186055 0.005550027360214537
90892860 -0.0005920678509231733 0.005529099815889744
90922622 -0.0005252701440711578 0.005505253418553456
90952384 -0.0005043320707076698 0.005484260891864984
90982146 -0.0005261724771225674 0.00546318732618475
91011908 -0.00045919491039228137 0.005439606079543944
91041670 -0.000482841963228185 0.005417511646951278
91071432 -0.00045855877960262803 0.005398906568465839
91101194 -0.0005652663641962381 0.005377600765490105
91130956 -0.00040878749272230705 0.005386688701248688
91160718 -0.00048297053508751455 0.005420736787646936
91190480 -0.0005157610254254171 0.005453144801932462
91220242 -0.0006767136193320917 0.0054852073805721656
91250004 -0.0005838214371260343 0.005513200936986109
91279766 -0.000746196361979874 0.005544317214065291
91309528 -0.0006129107421990434 0.005575948207297338
91339290 -0.0006944760216721715 0.005605998865333193
91369052 -0.0006895289117716071 0.0056366832012284
91398814 -0.0008822994274313419 0.005644356430176647
91428576 -0.0007551710056608779 0.005626641646773871
91458338 -0.0007132464648849569 0.005601767794820835
91488100 -0.0007490930392970497 0.005575038478456971
91517862 -0.0007459733324350211 0.005553221176590326
91547624 -0.0007026450572668924 0.005530097115347935
91577386 -0.0006999175198418966 0.00550936436574902
91607148 -0.0007331726977895041 0.005482325639515587
91636910 -0.0007296161992676373 0.00545801902653773
91666672 -0.0006906028667213017 0.00543859647610459
91696434 -0.000656378036998411 0.005454929507826055
91726196 -0.00054719386896342 0.005476421245000457
91755958 -0.00047548979608643885 0.005494235517170056
91785720 -0.00043784536484822376 0.0055063568036760584
91815482 -0.0003276032838079388 0.005521699306475954
91845244 -0.0002526179957941152 0.005536271270435943
91875006 -0.00021323432297306967 0.005545112390059596
91904768 -0.000246488263500111 0.005558068680443464
91934530 -5.833980310303505e-05 0.005560830782122703
91964292 -3.679470478722148e-05 0.005580391957047378
91994054 -2.7373245190818667e-06 0.005599913845316596
92023816 -0.00014328804532663246 0.005633658150300939
92053578 -4.141962303474651e-05 0.005651646002237504
92083340 -4.189185127147759e-05 0.005675090648759186
92113102 -1.0728624729866276e-05 0.005698636864141887
92142864 -4.90836926148805e-05 0.005724420708287821
92172626 -1.6794476471942002e-05 0.005748410354468592
92202388 -0.00015547173558009072 0.005777285435142918
92232150 -6.148668830736679e-05 0.005772271578867906
92261912 -0.00017982555386703307 0.005721935618295547
92291674 -6.476807529211585e-05 0.00566865400305243
92321436 -0.00011523826980986 0.0056194087082120595
92351198 -0.00010053240025134841 0.005568808151490201
92380960 -0.00014707371358965677 0.005519281000493366
92410722 -0.00016098654981903387 0.005467559971540749
92440484 -0.00014564078296157903 0.005418903665505908
92470246 -0.000157647814703611 0.005373122599566802
92500008 -0.00020114003269620248 0.005323216751483925
92529770 -0.00020619667689158116 0.005345681182667388
92559532 -0.00018616470678415613 0.005367709012099939
92589294 -0.00021861063877013032 0.005386846414904382
92619056 -0.00019681550486723524 0.005413239608370953
92648818 -0.00020493294840161767 0.005433981790088749
92678580 -0.0002390807511037989 0.005456162260468365
92708342 -0.00022227838569185187 0.005482080563213108
92738104 -0.00022760688570562263 0.005500679433697529
92767866 -0.0002612826647261419 0.005523340112929026
92797628 -0.00021836040160403122 0.005542461262858416
92827390 -0.00021318680246776265 0.005552117753865134
92857152 -0.00018522847755086743 0.0055634896095736516
92886914 -0.000234277427059476 0.0055742574275292976
92916676 -9.611408450175957e-05 0.005589382624286243
92946438 -9.153655561426174e-05 0.0056035278704313265
92976200 -5.975167654618026e-05 0.005615182998439355
93005962 -0.00010646782651403577 0.005625721750947166
93035724 4.489078993089573e-06 0.005635933010748492
93065486 -4.0073345218445106e-05 0.005647763644394287
93095248 0.0001302080566476293 0.005649700545099747
93125010 0.00021847994316332177 0.005636232315128117
93154772 0.0003271914543615108 0.005626666930943316
93184534 0.0003418918489232618 0.0056134546252245955
93214296 0.0004635250551154064 0.005606628892065415
93244058 0.0005082005240404044 0.00558831821535367
93273820 0.000628579170880941 0.005579059188968727
93303582 0.0007438967696907898 0.005550283502887479
93333344 0.0008167162065235577 0.005537955706685867
93363106 0.0008092663240781013 0.005534347864344882
93392868 0.0006846062701660688 0.005563323623306615
93422630 0.0006312938625178253 0.0055739440870571305
93452392 0.0005963721752293168 0.005578441964098181
93482154 0.0005206782482799106 0.00558470353753367
93511916 0.0004867597919673374 0.005586741127602784
93541678 0.0004312643980098143 0.005589759335297245
93571440 0.0003537359505066506 0.005589797068363936
93601202 0.0003177359377946813 0.005587135804700639
93630964 0.00024041409803212432 0.005607201332416027
93660726 0.0003804731533348656 0.005584164611824754
93690488 0.00046100678811854224 0.005577861089003032
93720250 0.0005029131641050595 0.005570610676533947
93750012 0.0005636939616257109 0.005569463214207588
93779774 0.0006420048756036058 0.005560971216781928
93809536 0.0006306696518527839 0.005553298169223947
93839298 0.0007474980229210649 0.0055442650469063465
93869060 0.0008085809658892068 0.005532098013100524
93898822 0.0008718583342891426 0.005518253380952853
93928584 0.0008754680627526684 0.005501076861155054
93958346 0.0009124901022887501 0.005481058190828628
93988108 0.0008642637271898509 0.005465015785893598
94017870 0.0009354034384685137 0.005443916106950898
94047632 0.0009043357656258868 0.005428513472556036
94077394 0.0009902771037409127 0.00540682807104587
94107156 0.000993733985837695 0.005387056794708945
94136918 0.0010313007409910198 0.005366607911147844
94166680 0.0010361967634713069 0.0053442478330261575
94196442 0.0010525383107386414 0.005613563979035261
94226204 0.0010153114799984022 0.005909226841296705
94255966 0.0010897041809222073 0.006236992192514252
94285728 0.0010677696522626127 0.006604480397081078
94315490 0.0010519236304120264 0.007013133967036444
94345252 0.00103233656229479 0.007479021383217135
94375014 0.0009525046386398378 0.008004947368602789
94404776 0.0008762031701827306 0.008607585457117168
94434538 0.0007230752727203497 0.009300524962208859
94464300 0.0007568975718466076 0.009017906952052209
94494062 0.0009116464801293587 0.00832029563079061
94523824 0.0010129827108336879 0.007705373446009504
94553586 0.001067343324034035 0.007168933006957111
94583348 0.0011330760773907273 0.006699233902474545
94613110 0.001151399614315602 0.006279228452166967
94642872 0.0011787522531022188 0.0059030111030008185
94672634 0.0012097712089701148 0.005565240898190073
94702396 0.0012201329698979578 0.0052615653004829
94732158 0.0012196119871715014 0.005057774898573675
94761920 0.0012425045376139516 0.005002129998177974
94791682 0.0012371761701742282 0.0049454826574868
94821444 0.0012922996124037135 0.004889564178266833
94851206 0.001287244767589501 0.004835020955467621
94880968 0.0013499721284141485 0.00477997577517772
94910730 0.0013619216284197018 0.004725416340291566
94940492 0.0013941687912078034 0.004670748873650996
94970254 0.001384429126488344 0.00461749516446997
95000016 0.001430622890846963 0.0045610574911324935
95029778 0.0014250080094839414 0.00457091840365445
95059540 0.001459496556158047 0.004578817113602127
95089302 0.001475035495820474 0.004588563531573963
95119064 0.0014974404208035897 0.004596463797236298
95148826 0.0014875191222172457 0.004602121488163026
95178588 0.0015248098156386855 0.004609768773271748
95208350 0.001542130188849249 0.00461818441847469
95238112 0.0015606135229387797 0.0046239863270609236
95267874 0.0015735880569773468 0.004630928849773061
95297636 0.0016054234319695876 0.004615202918455256
95327398 0.0016315239012925612 0.004593912967645615
95357160 0.0016581964231662967 0.004568944120498037
95386922 0.0016899729468850808 0.004546761600821042
95416684 0.0017227310356964086 0.004519943633615933
95446446 0.0017475114389327595 0.004494480660789051
95476208 0.0017827759384755684 0.004467945728461771
95505970 0.0018103081845618355 0.004440046233762309
95535732 0.001838174496216843 0.004410886190222935
95565494 0.001881142257599606 0.0043764691057870935
95595256 0.0019367748242762536 0.004335503694873481
95625018 0.001987481771003252 0.00429048530985461
95654780 0.002046736646335157 0.004248124218860145
95684542 0.002102068641347397 0.0041990252078861565
95714304 0.0021552448452502888 0.0041495480354810385
95744066 0.0022099136983769353 0.0040984001182947875
95773828 0.002257761173657167 0.0040487921069815224
95803590 0.0023157096260455283 0.003990745793919897
95833352 0.0023656344541308507 0.003931804344667339
95863114 0.00238848203180826 0.0038505385610261085
95892876 0.0024092699983340174 0.0037670375107244614
95922638 0.0024212120962848697 0.0036823254923841107
95952400 0.0024402102800970315 0.003602695636343798
95982162 0.002458240129004692 0.00351396448906658
96011924 0.0021156924524001995 0.0035298583816665364
96041686 0.002489481052181243 0.0033448185842976743
96071448 0.002514421714780093 0.003245991132858112
96101210 0.002511855584652982 0.0031676247628104515
96130972 0.002241954876029063 0.0031988696558705528
96160734 0.002563825731612531 0.0030458673853973836
96190496 0.002588978375838266 0.0029989846958965497
96220258 0.002617537761649441 0.0029360530188276895
96250020 0.0026521540784760576 0.0028728102043906623
96279782 0.0026705594316389445 0.0028171153717263223
96309544 0.0026901853692215738 0.002750793986343402
96339306 0.0027155917342540506 0.002686177001651343
96369068 0.002739886555677583 0.0026212170356131217
96398830 0.002768709434895932 0.002541489879251826
96428592 0.00279983864100009 0.002455911642314289
96458354 0.0028343894253326177 0.0023666229395649463
96488116 0.0031184161066495045 0.002048722476940975
96517878 0.00289317401457625 0.0021760020806504327
96547640 0.002916744005796963 0.002082773368038528
96577402 0.0029178239675923595 0.002012934311286698
96607164 0.0029589589890497165 0.0018707368485198375
96636926 0.003165183374189617 0.0015006791662437397
96666688 0.002979145550205369 0.00165743537766689
96696450 0.0029030654625306785 0.0014783607681796622
96726212 0.002908102005778549 0.001437133222420699
96755974 0.0027143483594068997 0.00153986177165634
96785736 0.002835800348481431 0.0012054719066215368
96815498 0.002651762920599026 0.0013202301967994068
96845260 0.002731809786615267 0.0009828968742131496
96875022 0.0026851599978139472 0.00086960038773687
96904784 0.0026295303109925903 0.000757138021789377
96934546 0.0025841167978465783 0.0006199857388419671
96964308 0.0025422479072964924 0.0005341931538961535
96994070 0.0024923667943899455 0.00042602619610670746
97023832 0.0024195399889000097 6.811837872039401e-05
97053594 0.0024027350219106985 0.00022383210945900995
97083356 0.0023488412539571612 0.00012017519336884346
97113118 0.002337297886831392 0.00023219343567002214
97142880 0.0022376041739702313 -9.42763223341597e-05
97172642 0.002031930435065003 -0.0004359297045401676
97202404 0.0021169190871630577 -0.00031288707066678647
97232166 0.0020317548486841128 -0.0004216213690173654
97261928 0.001965545582749849 -0.0005613918220180677
97291690 0.0018723447401366125 -0.0006921976069414708
97321452 0.0017742209931055465 -0.0008257196547146521
97351214 0.0016762821793922056 -0.0009318566695777547
97380976 0.0015803703829019502 -0.0010577898072787037
97410738 0.0014661303238479664 -0.0011850888756396443
97440500 0.001340660125260403 -0.0012935970353271581
97470262 0.0008419390456613508 -0.0014492504148629905
97500024 0.00109320657205153 -0.0015164396683256184
97529786 0.0009625361507827946 -0.0016177299336060094
97559548 0.0003673413865412383 -0.0016689924059886247
97589310 0.0006558963869806737 -0.001793745704964191
97619072 0.000452314239636712 -0.0018883571632227901
97648834 0.0003595382323596509 -0.00197083399150318
97678596 0.0001709294340777584 -0.002045271614588661
97708358 -0.0004874903679891616 -0.0018935031837378257
97738120 -0.00016224034673760685 -0.002177224725489672
97767882 -0.00033436599521261874 -0.0022321117203937934
97797644 -3.9452735855138915e-05 -0.0025005059449361667
97827406 -0.0007329199362601497 -0.002257722735702871
97857168 -0.0009751468086465182 -0.0022183941607073036
97886930 -0.0011704961778858497 -0.002187764909676525
97916692 -0.0009209254586190842 -0.0025528378618682275
97946454 -0.0016006790248075755 -0.002064460889220796
97976216 -0.0013761113962430607 -0.002496620506269231
98005978 -0.00229075210883097 -0.001294040577354916
98035740 -0.0021648014099805565 -0.0018006178338182063
98065502 -0.002313062585992147 -0.0017603274129114257
98095264 -0.002443611914082824 -0.0017877487229142315
98125026 -0.002590649070718247 -0.0017605531591402912
98154788 -0.0029355809654280436 -0.00104424428663852
98184550 -0.0028645406328501053 -0.0017913670061870588
98214312 -0.0030063245255853768 -0.0018009107972699555
98244074 -0.0033044750945825296 -0.0009924508624223462
98273836 -0.003248382426032632 -0.0018746760817396294
98303598 -0.003376467739319012 -0.001829726029055245
98333360 -0.0035030861806060612 -0.0018718245571870526
98363122 -0.003593458037424235 -0.0018387665643306774
98392884 -0.0037160017269576968 -0.0017209265343542455
98422646 -0.0038127442741222608 -0.0016923112981845718
98452408 -0.0038922435701160218 -0.0016362086034468592
98482170 -0.003999568154185174 -0.0015008823127523857
98511932 -0.004069203065983567 -0.001488192762087933
98541694 -0.004116887166164842 -0.0004205403216146671
98571456 -0.004227031329781489 -0.0012815941705514903
98601218 -0.004245755387424083 -0.002147759139632984
98630980 -0.004393999909534573 -0.0010861919251206778
98660742 -0.004477901712898836 -0.0009620605955313205
98690504 -0.00436864580960245 8.311445161738874e-05
98720266 -0.004698751195534038 -0.001662383814761805
98750028 -0.004700241755141145 -0.0005681940451093628
98779790 -0.0047662955405771475 -0.00044000276039773647
98809552 -0.004845886750277649 -0.00037341086573824495
98839314 -0.0048718065972034 -0.00017479951914020132
98869076 -0.004944686884252335 -0.00010564645522042047
98898838 -0.0052422557349903354 -0.0008444759211398139
98928600 -0.005038544473156816 0.00014453470549125635
98958362 -0.005400489802931965 -0.0006931601672396868
98988124 -0.00518014887912023 0.00023887979140240485
99017886 -0.005122037382638645 0.0004009422686570102
99047648 -0.005204597164682609 0.00039936946839502877
99077410 -0.005218835265473692 0.0005267718869674376
99107172 -0.005283597045487772 0.0005925205304411679
99136934 -0.005344186616337926 0.0006149207842244611
99166696 -0.005399280944949479 0.0006827381838617645
99196458 -0.005390304061794051 0.0007891486169170331
99226220 -0.005462374352175369 0.0007910323535676919
99255982 -0.0054618785003162805 0.0008243030828032493
99285744 -0.005458422955049305 0.000914816443408951
99315506 -0.005491596650880955 0.0009306325487389049
99345268 -0.0055003647196030115 0.000976962989352036
99375030 -0.0054778744151224015 0.0010777496288880814
99404792 -0.005669571895216893 0.0009351701411151327
99434554 -0.005594233975055829 0.0010517348657515153
99464316 -0.005478861183360251 0.001295625206649409
99494078 -0.005499493784156038 0.0013929037799366665
99523840 -0.005407109970076433 0.0016211127557540855
99553602 -0.0054752833733093505 0.001725064620079956
99583364 -0.005882051648545309 0.0012565023749575791
99613126 -0.0046546971826399415 0.0026679832600954166
99642888 -0.005224473254931335 0.0022082295763265255
99672650 -0.005173327696689093 0.0023572334555705993
99702412 -0.005729301707914188 0.001887455055736038
99732174 -0.005231008811597815 0.002501642744585129
99761936 -0.004962912755270456 0.0027018944555555983
99791698 -0.00521711420852282 0.0024981622114455485
99821460 -0.005074424054038013 0.0025852620750306627
99851222 -0.005294941311871222 0.0024760012383004365
99880984 -0.005891155250871986 0.001945517800954183
99910746 -0.005309340644478864 0.002488454963036492
99940508 -0.005959312502376013 0.001905753096262509
99970270 -0.005384596327586664 0.0024554064652590867
100000032 -0.005416295452072969 0.0024435684570685047
100029794 -0.005412043198839267 0.0024915172488583427
100059556 -0.005405898791603134 0.002551816902535806
100089318 -0.005388200726033009 0.0026041046622049843
100119080 -0.005387385442019089 0.0026617174708786027
100148842 -0.005370277311119779 0.0027133010803293872
100178604 -0.005362458146385567 0.0027712880935167033
100208366 -0.005356366291679306 0.0028178602663035558
100238128 -0.005341368126136608 0.0028599312115451464
100267890 -0.005322634582526284 0.002910307005665224
100297652 -0.005323561498484463 0.0029590050989871225
100327414 -0.005318413220342359 0.002989236159547992
100357176 -0.005321394143201974 0.0030263705752938347
100386938 -0.0053177104951308935 0.0030616211903140905
100416700 -0.005323282733177171 0.0031007962599078633
100446462 -0.005315365169838745 0.0031274800411236676
100476224 -0.005314744624882122 0.0031651696537123865
100505986 -0.005313306349152552 0.003193759175254886
100535748 -0.005316333289627036 0.0032246865314959866
100565510 -0.005322334322234755 0.0032665315357785817
100595272 -0.005374079316612617 0.003310955676077378
100625034 -0.005424738691081589 0.0033661786505601054
100654796 -0.00547010516363789 0.00341135440860037
100684558 -0.005517764160961266 0.00344962372693887
100714320 -0.005578446672909511 0.0035098833891985585
100744082 -0.0056274536966546005 0.0035498436937692326
100773844 -0.005683471193647889 0.0035963940676500146
100803606 -0.005736091093635909 0.003640708580654619
100833368 -0.005798908733217423 0.0036912114539310796
100863130 -0.005735180794358476 0.0037171312289205056
100892892 -0.0056763878743322435 0.003751819125370229
100922654 -0.00561743044429449 0.0037861947765320094
100952416 -0.005569304509887303 0.0038177359308686223
100982178 -0.005512243711015773 0.0038401019541186468
101011940 -0.005448648998073374 0.0038665543816376884
101041702 -0.005400509994699594 0.003886913828602103
101071464 -0.0053443538482421775 0.003924637604071768
101101226 -0.005281367053044641 0.003937696614778211
101130988 -0.0052632999649587795 0.003953492658256259
101160750 -0.005257614203972225 0.003964652272282571
101190512 -0.005261646493902223 0.003981365871017306
101220274 -0.005251548775891085 0.003991263450294481
101250036 -0.00524954272591036 0.004008604812839542
101279798 -0.005247040292201779 0.004015307401182085
101309560 -0.005244905822858526 0.004026121103894251
101339322 -0.005239737585326897 0.00403770565772848
101369084 -0.005235375204725611 0.004048008235973591
101398846 -0.0052135842719178305 0.004083348142045276
101428608 -0.005168769219684588 0.004172070843808569
101458370 -0.005123412185688157 0.0042626117670633516
101488132 -0.005065975212802893 0.004344901341987077
101517894 -0.005019216665398162 0.004429099384613522
101547656 -0.004963491099687773 0.004511421854606333
101577418 -0.0049027077735497296 0.004595186022816339
101607180 -0.004851657199376168 0.004676826276598326
101636942 -0.004789520642609012 0.004756821642019147
101666704 -0.004724961108803352 0.004830962981226364
101696466 -0.004800681368927529 0.0047813020929583045
101726228 -0.004869752200209202 0.004724604701373552
101755990 -0.004943376898521282 0.004668291562025393
101785752 -0.005014764340284168 0.004609424496104628
101815514 -0.005074356286077069 0.0045371849920564766
101845276 -0.00513808030603708 0.004470319583237852
101875038 -0.005198987569533365 0.004405202833646025
101904800 -0.0052642237097954 0.0043368011680373535
101934562 -0.005310424746298168 0.004258597359511595
101964324 -0.005283707215734359 0.00428491089476452
101994086 -0.005207530610842435 0.004366482185842265
102023848 -0.005136788770137859 0.00443332294911717
102053610 -0.005023744927454017 0.0045096632480935124
102083372 -0.004974729360816357 0.004570307802445072
102113134 -0.0048963887917584685 0.0046337880917238965
102142896 -0.004816043792447881 0.004700415431177991
102172658 -0.004735546184923004 0.0047666835882115635
102202420 -0.0046491332205593995 0.004817367846774345
102232182 -0.004777885085385298 0.004863694891029783
102261944 -0.004703441496543291 0.004889599494569814
102291706 -0.004693291057900603 0.004893929039778866
102321468 -0.004880122507716222 0.004927009331974859
102351230 -0.004901380150384062 0.004944292023180343
102380992 -0.005063616134111782 0.004952873896532488
102410754 -0.00515617273322705 0.00497011924459412
102440516 -0.005251987216725871 0.0049751321179276106
102470278 -0.0053532220351495755 0.004990920806211182
102500040 -0.005418950420254258 0.004994277147187854
102529802 -0.005370923655617438 0.005035625395551151
102559564 -0.005311692916572167 0.005071885278316108
102589326 -0.0052523417253815315 0.005104423852898154
102619088 -0.005197290643422937 0.005145136614641672
102648850 -0.005142680460082018 0.005173758989809755
102678612 -0.005088609818621482 0.005209733369210777
102708374 -0.005063876439384868 0.005231791456880676
102738136 -0.005005311605156679 0.005266261963217472
102767898 -0.004882882137657143 0.005299928423862192
102797660 -0.00490977855905866 0.005304825023710809
102827422 -0.0048931489556456546 0.005282757150777763
102857184 -0.004877210950686633 0.005265861274563528
102886946 -0.004847177053318157 0.005254295457744447
102916708 -0.004827695834728099 0.005234691048321876
102946470 -0.004813002858821967 0.005216142407517103
102976232 -0.004785309262864601 0.0052016088779817116
103005994 -0.004764851144019906 0.005183190014575371
103035756 -0.0047465139633010335 0.005168527305258988
103065518 -0.004731724777823867 0.005161894210825999
103095280 -0.004730471668521699 0.005201405751042622
103125042 -0.004727096060843438 0.005236397937038458
103154804 -0.004741285457163622 0.005266527625453634
103184566 -0.004737620664447585 0.0053070386366882326
103214328 -0.004742307518583358 0.005336907873384134
103244090 -0.004742156771381343 0.005375223117278396
103273852 -0.004743415785139183 0.005403558095975499
103303614 -0.004747953210112482 0.0054408145883613705
103333376 -0.004748657879143462 0.005476636589354128
103363138 -0.004654180953446631 0.00549273630756194
103392900 -0.00455951154025808 0.005508841945928762
103422662 -0.004472606990326309 0.0055180333300746225
103452424 -0.004379002100050887 0.005526190584124689
103482186 -0.004284534113321436 0.005543466240382347
103511948 -0.004194400929260526 0.0055490279167371166
103541710 -0.004110271163697541 0.005548951304749366
103571472 -0.004023202361398003 0.005548454966256319
103601234 -0.0039376803268641215 0.0055524957694038386
103630996 -0.00393112857302815 0.005557733156940271
103660758 -0.0039703963740626465 0.00555652792732863
103690520 -0.0040142816113086675 0.005550253303607743
103720282 -0.004056692438829956 0.005544705188675963
103750044 -0.004090179726307151 0.005536277989261544
103779806 -0.004138493400704764 0.00552804640007873
103809568 -0.004177435159287274 0.0055180131640966065
103839330 -0.004216971699559635 0.005506205658818664
103869092 -0.004259819461133469 0.005495970801650269
103898854 -0.004302432186642694 0.005494293403729029
103928616 -0.004339385236840588 0.005518616262816634
103958378 -0.004373862059708367 0.005541103875151756
103988140 -0.0044091987757472785 0.005562966915225857
104017902 -0.004455007350992676 0.0055886583757879405
104047664 -0.004491549663101752 0.00561287472364962
104077426 -0.0045348404721987185 0.005635817055693924
104107188 -0.004572177729432854 0.005656470177196205
104136950 -0.0046143513847315505 0.005677679441893052
104166712 -0.004659559082887192 0.0057005895971672434
104196474 -0.004652025483648546 0.00575671819753469
104226236 -0.004636074081531091 0.00580691684126426
104255998 -0.004622612927735272 0.005857509138230966
104285760 -0.00461596273166996 0.005908715126455511
104315522 -0.0046003724901853785 0.00595667698672104
104345284 -0.004578814735235809 0.006007862957261565
104375046 -0.004566998726452928 0.006061624125654763
104404808 -0.004552744198238788 0.0061171615348820044
104434570 -0.004541523875617297 0.006161939034269733
104464332 -0.004524413417726155 0.006139979467292035
104494094 -0.004503914814161809 0.006091657567801392
104523856 -0.004493835354135773 0.006042845199463003
104553618 -0.004464095593005302 0.005989937106612981
104583380 -0.004444806327452724 0.005942217192923476
104613142 -0.004425727150765282 0.005889156453353845
104642904 -0.004407817861890181 0.005842226077909028
104672666 -0.0043888177009291434 0.00578809070723363
104702428 -0.004366917722123677 0.005737483471980303
104732190 -0.004349829530281528 0.005734880892929262
104761952 -0.004330360968508564 0.00580838281472012
104791714 -0.004314680462344472 0.005883053035993726
104821476 -0.004298976982807689 0.005959501964518377
104851238 -0.004280101522838788 0.006040561573398483
104881000 -0.004257831041249963 0.006121508632431041
104910762 -0.004233888819849706 0.006203441542489706
104940524 -0.0042092251823272675 0.006285139708076511
104970286 -0.004185018180963522 0.006366255075643557
105000048 -0.004157391338698664 0.006452163804819967
