# HZ S RI R 50
90000000 -0.0009294301497421624 0.0055094065157929905
90029762 -0.0009040806727214774 0.005546086066410374
90059524 -0.0011470306904585203 0.0055689534177746055
90089286 -0.0010131281413311467 0.005610309824697911
90119048 -0.0012049708500990908 0.0056365878953415095
90148810 -0.0010359165700715616 0.005668334365785804
90178572 -0.0011027384174008342 0.0057089794628557644
90208334 -0.0010802956388587487 0.005745056250894808
90238096 -0.0013330988270930503 0.0057670628941647465
90267858 -0.0012032125055372724 0.005810598670551315
90297620 -0.001192760923203481 0.005792078949719017
90327382 -0.0011140915867501836 0.005748074897882895
90357144 -0.001140795550867916 0.005705056677774065
90386906 -0.0010608887752545327 0.005663747364737571
90416668 -0.0012432836668535678 0.005611980272838201
90446430 -0.0010615717932235043 0.005577460992073815
90476192 -0.0009860402711167912 0.005537880583364281
90505954 -0.0009626676054753556 0.005498571806275007
90535716 -0.0009866981595643728 0.005453432638147267
90565478 -0.0009117116605746669 0.005435981869451962
90595240 -0.0009248603261281563 0.005448322478580652
90625002 -0.0008901613299236339 0.005466533603522564
90654764 -0.0008048185809734502 0.0054815896478394325
90684526 -0.0007708999338783799 0.005496242654011355
90714288 -0.0007825440177968921 0.005511943957291481
90744050 -0.0007465477718773358 0.005527966822782901
90773812 -0.0006615284937613374 0.005542788622161446
90803574 -0.0006721006610966873 0.0055551389087093546
90833336 -0.0005902186485844204 0.005568955485539782
90863098 -0.0005650063013880711 0.005546948422001137
90892860 -0.0005884493374553122 0.005525448842531512
90922622 -0.0005205472862221333 0.005503678481704998
90952384 -0.0004988238783103502 0.0054814039222705275
90982146 -0.0005187513436663954 0.005456417492371656
91011908 -0.00045342829287644664 0.005436729225303497
91041670 -0.0004752679393740131 0.005414336487015165
91071432 -0.0004532730303927247 0.005392543712858433
91101194 -0.0005569740211292707 0.005377237173107985
91130956 -0.0004034348285329654 0.005386187818270518
91160718 -0.0004770489431273855 0.0054165897539140825
91190480 -0.0005099759184852824 0.0054470114504284045
91220242 -0.0006681379338463374 0.005480374681575426
91250004 -0.0005763063476104523 0.005510358480778481
91279766 -0.0007413042832397233 0.005539460870718074
91309528 -0.0006063471008401893 0.005572827493713687
91339290 -0.0006841954116505516 0.005603424333328089
91369052 -0.0006822416812014056 0.005632768605531062
91398814 -0.0008763612220491597 0.005642788020465825
91428576 -0.0007475715044674366 0.005620773048221021
91458338 -0.0007015930411652835 0.005596067932402851
91488100 -0.0007405667101910009 0.00557312600401661
91517862 -0.0007365583870234022 0.005548025348907441
91547624 -0.0006955453620679636 0.005527017457581298
91577386 -0.000690920759491246 0.0055038926239518475
91607148 -0.000726239295389073 0.005476821179948214
91636910 -0.0007229355864860539 0.005456618984220131
91666672 -0.0006804051810019183 0.005433212461525526
91696434 -0.0006477623736349124 0.005452394347352993
91726196 -0.0005401012784825157 0.005469879951224482
91755958 -0.0004659194431835292 0.005489344240629134
91785720 -0.0004280873129657257 0.005504318943263392
91815482 -0.00031822915257615815 0.005516471821576594
91845244 -0.0002438951349067535 0.0055287684567899755
91875006 -0.00020472123459124811 0.00553939635395403
91904768 -0.00023571810411343214 0.00555322705776516
91934530 -5.108309176535193e-05 0.00555607747358697
91964292 -2.7434582827212323e-05 0.005574577324633532
91994054 5.889654142463781e-06 0.005595653846043882
92023816 -0.0001351361762343194 0.005624246742483533
92053578 -3.0762349871238326e-05 0.005645068533940866
92083340 -3.409699262807005e-05 0.005670842929093461
92113102 -1.0677003604380393e-06 0.005693653820995293
92142864 -3.758512831555885e-05 0.0057180255303811945
92172626 -4.5806332635584995e-06 0.005742282342554415
92202388 -0.00014616986377320436 0.0057725560763794825
92232150 -5.0068336023777816e-05 0.005767204297845685
92261912 -0.00017031490206511894 0.005716525749034325
92291674 -5.557200739567577e-05 0.005660802754677165
92321436 -0.0001042116993432792 0.005613290554240154
92351198 -8.879040679635993e-05 0.005562046477790607
92380960 -0.00013599212780558026 0.005513111922051053
92410722 -0.00014953230619923957 0.0054645969329675395
92440484 -0.00013460503238865308 0.005416154508267647
92470246 -0.000146876589582316 0.005366830264054435
92500008 -0.00018901552528989755 0.005316105206909227
92529770 -0.00019418975842889517 0.005337815806098632
92559532 -0.00017346447223495025 0.00536316063628088
92589294 -0.0002077874133437586 0.005381525189181603
92619056 -0.00018554728809731992 0.005406252641474497
92648818 -0.00019386008966107722 0.0054269382594190575
92678580 -0.00021123152647932876 0.005445087552117094
92708342 -0.00020829298806689163 0.005474659911086332
92738104 -0.00021341429708294252 0.00549320287285496
92767866 -0.0002487447630275669 0.005515752552777681
92797628 -0.00020477383828859685 0.005532702873855368
92827390 -0.00020440964965768107 0.005543754113654243
92857152 -0.0001734280577575035 0.0055569944545684575
92886914 -0.000220724266884831 0.005567644821886157
92916676 -8.318962374125501e-05 0.005582864076266473
92946438 -7.753716553730188e-05 0.005594878822022696
92976200 -4.587202296577284e-05 0.005605633965158998
93005962 -2.6169875031830004e-05 0.005593179030137265
93035724 1.9633144722807533e-05 0.005628628457047381
93065486 -7.826109427772292e-06 0.0056324227648649056
93095248 0.00017833867234477854 0.005630425603607308
93125010 0.00020087117310883798 0.005635483259253483
93154772 0.000324567339105831 0.005620847559732691
93184534 0.00032530291233584725 0.005613691245980471
93214296 0.0004997372710702121 0.005590903688784976
93244058 0.0005085247422987106 0.005582592122397626
93273820 0.0005993477051740191 0.0055864160674860865
93303582 0.0006807849467274148 0.005565688587439814
93333344 0.0008310524740859059 0.00552460521310252
93363106 0.0007771371276353716 0.0055362033906644036
93392868 0.0007007836882052582 0.0055498289260376005
93422630 0.0006480443016280182 0.00555784157832541
93452392 0.000615667864790896 0.005563542238933406
93482154 0.0005392225914024965 0.005569537918896378
93511916 0.0005041613143916315 0.005573355835968657
93541678 0.00045062999197667856 0.005572167084450905
93571440 0.00037464248646979924 0.005573978248714342
93601202 0.0003400901639281393 0.0055744257973502215
93630964 0.00036130995480813157 0.005572320566230444
93660726 0.00040097411402384274 0.005569345592494954
93690488 0.0005470245110069243 0.005546558582866835
93720250 0.0005242443144493601 0.005553944438023125
93750012 0.000582944304233051 0.005551143028635801
93779774 0.0006647315442308478 0.005544058745863334
93809536 0.0006513641318842938 0.005538105860502448
93839298 0.0007673995869089157 0.005524507604120553
93869060 0.00083152374353172 0.0055141997992930875
93898822 0.0008956115838632756 0.005500472547706689
93928584 0.0008983334395066121 0.0054824441349920015
93958346 0.0009330158016340894 0.005461646195095192
93988108 0.0008846623051289531 0.005445082584364513
94017870 0.0009583675544781315 0.005424112830009138
94047632 0.0009284622843715409 0.005405667659681704
94077394 0.0010128709889576713 0.005384957745290211
94107156 0.0010173853349231478 0.005363153752472851
94136918 0.0010545059760914664 0.0053427772177968525
94166680 0.0010599560489572574 0.0053211094403870585
94196442 0.001077938010453955 0.005586630057472674
94226204 0.0010465088014944442 0.005884264941863778
94255966 0.0011187724921549705 0.006207324187728474
94285728 0.0011019607864591495 0.0065769552824885376
94315490 0.0010902341172002114 0.006984032551132318
94345252 0.0010769513078349037 0.007447466942178131
94375014 0.0009963508609714664 0.007966249077846915
94404776 0.0009258337260884251 0.008569638788135017
94434538 0.0007784006842901273 0.009260443447710804
94464300 0.0008105093439433748 0.008978525968211764
94494062 0.0009623643021216582 0.008276945074223658
94523824 0.0010571487504752674 0.0076651753188116505
94553586 0.001107720672337738 0.007132438660998723
94583348 0.0011736156708699258 0.006658427054539807
94613110 0.0011941320914623176 0.006238657885084549
94642872 0.0012190280823053182 0.005867510226311162
94672634 0.0012458240152465742 0.005531315488322295
94702396 0.001251992202600673 0.00522606063670706
94732158 0.001255472561412666 0.005016868309270182
94761920 0.0012798905865617216 0.00496318902129842
94791682 0.0012751698764438594 0.004907842521005077
94821444 0.0013271613072138072 0.004853424441982485
94851206 0.0013202328845226053 0.004795886827454957
94880968 0.0013844423363745051 0.0047391412198728045
94910730 0.00139997490056833 0.004680744050096166
94940492 0.0014290413859695235 0.0046291034659883
94970254 0.0014193600887396265 0.004574081791256691
95000016 0.0014645586156717602 0.0045163968725024555
95029778 0.0014623483620525531 0.004526033811233725
95059540 0.0014989550463889475 0.004532137401801129
95089302 0.0015106684460103241 0.004539358502248607
95119064 0.001535349392611733 0.004543347714317549
95148826 0.0015269937897199328 0.004550010189286058
95178588 0.0015660757713092076 0.004557541457414008
95208350 0.00158175115521286 0.00455941424130353
95238112 0.0016093658578970665 0.004563462207454698
95267874 0.0016180828733578022 0.004565149847838772
95297636 0.0016495233204698641 0.004553589765822914
95327398 0.0016785309664304876 0.004531091535998154
95357160 0.0016991612864130847 0.004502521460110203
95386922 0.0017379702305141199 0.004476265669260743
95416684 0.0017720785248540756 0.004445688241791724
95446446 0.0017936519944754229 0.004418830538512
95476208 0.0018306095227945303 0.0043887600311302176
95505970 0.0018533513407957428 0.004358518512495261
95535732 0.0018901202445623195 0.004324105491132258
95565494 0.0019323750634157692 0.004290002557093976
95595256 0.0019903904491944515 0.004239555409793025
95625018 0.0020387160606714565 0.0041951231650837655
95654780 0.002093629316201387 0.004145853612365805
95684542 0.0021720660906262785 0.0040876401554305625
95714304 0.0022005823731655414 0.004041368678446793
95744066 0.0022592804882359237 0.003985452786639809
95773828 0.0023092894154798315 0.003928120810344936
95803590 0.0023672737203106 0.003868068985384484
95833352 0.0024122922166869222 0.003808700805979935
95863114 0.002429457605121622 0.003721278141043173
95892876 0.0024491123689902683 0.003634108346319721
95922638 0.0024516209898288 0.003552313639335458
95952400 0.0024793085039623805 0.003458116615037658
95982162 0.0024890608152850153 0.003371544275875569
96011924 0.0021736721795744163 0.003373946228043925
96041686 0.0025186095708135763 0.003177042697462617
96071448 0.0025322434056779994 0.003081539376477421
96101210 0.0025296735474957376 0.003119260378070417
96130972 0.002235601137443369 0.0030514834659342415
96160734 0.0025716524312910352 0.0028690266325992176
96190496 0.0026256326346221237 0.0027842977595410436
96220258 0.0026306596766432705 0.0027365230400673724
96250020 0.0026519152022904027 0.0026660116895994798
96279782 0.0026764796446146102 0.0025938991970066404
96309544 0.002673249104101599 0.002543717512345824
96339306 0.0027063802101277724 0.0024553460167622628
96369068 0.0027246381294434175 0.002382145114542403
96398830 0.0027492430949813476 0.002292602712871261
96428592 0.002775589599901495 0.0021858319927567757
96458354 0.0028027494184451997 0.0020912807457915904
96488116 0.003032515320139359 0.0017693837736066746
96517878 0.0028231758310519077 0.0019006554798176678
96547640 0.0028358920450854645 0.0017968015084440319
96577402 0.00284618595026804 0.0016894351599052362
96607164 0.0028485248098281232 0.0015761294794197451
96636926 0.003003254987248391 0.0011909407809860182
96666688 0.0028463867277095344 0.0013493622003647322
96696450 0.0028017160422771294 0.0012261970186306919
96726212 0.002750103370116946 0.0011185235658879521
96755974 0.002590579048889456 0.00121589916906151
96785736 0.0026394201069605606 0.0008806423505067913
96815498 0.002504518139264993 0.0009858707189394625
96845260 0.002521291261842926 0.000658721132975871
96875022 0.002454249690633512 0.0005429779335143455
96904784 0.00239148878593552 0.000430443391936171
96934546 0.0023149696398210807 0.0003167372402570513
96964308 0.0022538071447541744 0.00022403300171256016
96994070 0.0021948788165047453 0.00012259919783116118
97023832 0.0020318238172042464 -0.0001996050934720754
97053594 0.002065025134335342 -8.784549726904357e-05
97083356 0.0019894637519489995 -0.0001788311958679301
97113118 0.002016705214201628 -0.00011842945867078309
97142880 0.0018311798185283784 -0.00038345965203403083
97172642 0.0015554563607397937 -0.0006455903975971146
97202404 0.001664455782966679 -0.0005796828918204911
97232166 0.0015729490481442266 -0.0006927588572084744
97261928 0.0014653500464405671 -0.0007999824899954505
97291690 0.0013614725708984518 -0.0009103808840107604
97321452 0.0012401567835212748 -0.0010094076219911395
97351214 0.0011326739711710694 -0.0011100855945198396
97380976 0.001011250458390895 -0.0012092499469077
97410738 0.0008690583672205457 -0.0012946152467427198
97440500 0.0007309725843414225 -0.0013775291530833938
97470262 0.00023128558229160617 -0.0013821328647375187
97500024 0.0004573336622197794 -0.0015308521786891144
97529786 0.00031923085805275243 -0.0015930540934517862
97559548 -0.0002403006800405476 -0.0014832545434833183
97589310 3.2388643039841314e-06 -0.0017255387300627034
97619072 -0.0001840561592800805 -0.0017506156099504088
97648834 -0.00030952698836500314 -0.0018128216244775665
97678596 -0.0004805840447807171 -0.001839473610466708
97708358 -0.0010413939679179592 -0.0015140929406355728
97738120 -0.0008165833496256981 -0.0018815941894308101
97767882 -0.0009765140415981088 -0.001909375216232694
97797644 -0.0007517701858447879 -0.0022628704025397
97827406 -0.0013309204467949647 -0.0018465019389134899
97857168 -0.001541890419303668 -0.001774262371464495
97886930 -0.0017192480622510453 -0.0017015788692438638
97916692 -0.001541109603062319 -0.0021398747440536372
97946454 -0.0020579441427115187 -0.0015280961297499047
97976216 -0.0019303591941890771 -0.001982429060953419
98005978 -0.002512998132003984 -0.0006764236453936723
98035740 -0.0024861793652823554 -0.0011953334909044142
98065502 -0.002602759841272266 -0.001139913996572156
98095264 -0.0027264146557120553 -0.0011430871141988662
98125026 -0.002845953527911694 -0.0011101471438821808
98154788 -0.0030230688426957594 -0.0004055998797183685
98184550 -0.003074239656933978 -0.001115078591066019
98214312 -0.003198103072332881 -0.0010962559479725637
98244074 -0.003328151059515446 -0.0003316584821363092
98273836 -0.0034136562618195137 -0.0011567781347552376
98303598 -0.0035301583399352625 -0.001098535129921464
98333360 -0.0036439200078194366 -0.0011254466385882528
98363122 -0.0037117532549803805 -0.0011003612625672145
98392884 -0.0037787708348935196 -0.0009839962070220633
98422646 -0.003853082032164896 -0.0009759742966717315
98452408 -0.003914476466440976 -0.0008852908308374593
98482170 -0.00397578009362586 -0.0007794506571432036
98511932 -0.004026258305929868 -0.0007651019521530038
98541694 -0.003929351125707106 0.00016276648198072793
98571456 -0.004120133992142294 -0.0005892812235412776
98601218 -0.004230595155576953 -0.0013667396882652667
98630980 -0.004229129699550327 -0.00042301925037071603
98660742 -0.004264364041697927 -0.00031600233343078446
98690504 -0.00407531959109124 0.0005984566654602442
98720266 -0.004544855125919611 -0.0009097050608284732
98750028 -0.004414445332233749 3.065004859650884e-05
98779790 -0.004462648505031492 0.00014362413813940667
98809552 -0.004517873576289194 0.00019874467328014056
98839314 -0.004520580739495727 0.00036110424456714665
98869076 -0.004569463603342233 0.00041917150005122246
98898838 -0.004872407757058315 -0.00022822679524295373
98928600 -0.00462267731492104 0.0006229716156712372
98958362 -0.004994520004926888 -0.00010255096620605033
98988124 -0.004731516919901669 0.0006965711978636121
99017886 -0.004755000058957074 0.0008030956631041821
99047648 -0.004816757027558465 0.0007894268679372001
99077410 -0.004759351209435194 0.0009726868320373007
99107172 -0.004872808498248155 0.0009464493819996997
99136934 -0.004892872374396667 0.001001252037379335
99166696 -0.005033955407734589 0.0009580614187590868
99196458 -0.004940433992408215 0.0011170660600515105
99226220 -0.004982932724507068 0.0011319394863033782
99255982 -0.005004141752060292 0.0011200416295181414
99285744 -0.005000475988476589 0.0011857551236909116
99315506 -0.005096623933565796 0.0011266807068191754
99345268 -0.005079119321996592 0.0011689533221049707
99375030 -0.005047971574289645 0.0012542114254000328
99404792 -0.005073611578728987 0.0012434229053786105
99434554 -0.0050845039734053205 0.0012624256016362555
99464316 -0.00506585804608408 0.0014100669582240788
99494078 -0.005046894987729096 0.0015115913186660584
99523840 -0.0049822971489383834 0.0017025078248158602
99553602 -0.0049398111954140015 0.0018319003455848674
99583364 -0.005392943331347128 0.0013468250465030111
99613126 -0.0043009247830865715 0.002634744870889795
99642888 -0.004823434840943659 0.002199516853765101
99672650 -0.004778149764299409 0.0023221089937056254
99702412 -0.005246795495715395 0.001908730978834558
99732174 -0.004705593217065304 0.002503263533806306
99761936 -0.0046026268708752646 0.002616343631656897
99791698 -0.004818152222037837 0.002427425282511509
99821460 -0.0048311440987871285 0.002430920576273481
99851222 -0.0049250582195107095 0.00236675720016483
99880984 -0.005462320280623555 0.001843138732847909
99910746 -0.004958905178114101 0.002363003733932175
99940508 -0.005542334087075858 0.0017820286273741203
99970270 -0.00503975692218925 0.0023077850890760427
100000032 -0.005089820523306896 0.0022955169736361522
100029794 -0.005075682952187213 0.0023210221389801037
100059556 -0.0050850066908758465 0.0023683353009634244
100089318 -0.005079123123613903 0.002411061344111953
100119080 -0.005093545977119839 0.002450236471971879
100148842 -0.005086844833331957 0.002499403483081939
100178604 -0.0050959961022924985 0.0025422730441411827
100208366 -0.005108789253414318 0.0025858075198478374
100238128 -0.005096313786580195 0.0026279915901194916
100267890 -0.005098930593237958 0.0026736722603911624
100297652 -0.005100192464283323 0.0027084143097198293
100327414 -0.0051135903737725245 0.0027334556233457705
100357176 -0.005126339961102226 0.002763674916608668
100386938 -0.005135685421100037 0.0027971808988163155
100416700 -0.005148655370076515 0.002823482392817069
100446462 -0.005162051156285541 0.002851254154031086
100476224 -0.005168240284328521 0.002889606317578429
100505986 -0.005172334997449273 0.00292321717130194
100535748 -0.005196630632807378 0.0029489460065948193
100565510 -0.005218431394330303 0.0029813480579464844
100595272 -0.005277697205992558 0.003026165396009143
100625034 -0.0053358155557745365 0.0030733194761330563
100654796 -0.005392772909929934 0.003115811687110852
100684558 -0.0054600627394942765 0.0031616276238647426
100714320 -0.005512214927943424 0.0032140423483902904
100744082 -0.005578933244167516 0.0032505174141047644
100773844 -0.005655240324260061 0.00330487886911361
100803606 -0.005722639338613698 0.003347710230398669
100833368 -0.005789103519770856 0.0033907140698574622
100863130 -0.005738507095222313 0.0034278284119741635
100892892 -0.005695640669299488 0.003470983154819925
100922654 -0.005654505149625423 0.003507015174759598
100952416 -0.005609273835795042 0.0035356101450583224
100982178 -0.005564120442673185 0.0035694356719258927
101011940 -0.005518587472221924 0.003599803531293984
101041702 -0.005472596773182902 0.0036274323180943467
101071464 -0.005422934919135822 0.003668760423388136
101101226 -0.0053749354652507676 0.0037058378330050595
101130988 -0.005369448505755021 0.003730405945819954
101160750 -0.005370531012487177 0.003736768368806781
101190512 -0.005372929039382757 0.003760356589567024
101220274 -0.005371547944034335 0.003791747280475427
101250036 -0.005382061454560691 0.003798796346879103
101279798 -0.0053791505443067916 0.003820634358154186
101309560 -0.005379515551659769 0.0038406213452915816
101339322 -0.005382408827357256 0.003855276659952165
101369084 -0.005382549886222714 0.0038712263400788763
101398846 -0.005368932910946921 0.003916819940123637
101428608 -0.005329666365118707 0.004010982358781962
101458370 -0.005291657572429032 0.00410696146910943
101488132 -0.005241218408588573 0.004206486579924204
101517894 -0.005195837055411848 0.004298595939218247
101547656 -0.005144916699757258 0.004393360102773427
101577418 -0.0050938790619304486 0.004488587236573367
101607180 -0.005040054371189101 0.0045767108514718395
101636942 -0.004976949959816165 0.0046735111771727495
101666704 -0.004920146011859889 0.004755439177961435
101696466 -0.004988880116058018 0.00471495194951006
101726228 -0.00506658215966529 0.004662848152464754
101755990 -0.005124903761635826 0.0046035845803503945
101785752 -0.005193898302530284 0.004547368534052265
101815514 -0.005257909804438328 0.004490546299062065
101845276 -0.005327018788809664 0.004425000295117282
101875038 -0.005390329355280844 0.004362891914389334
101904800 -0.005444820421081058 0.004292613304228607
101934562 -0.005500460659902245 0.004217869268147584
101964324 -0.005459644439171701 0.004257156779971255
101994086 -0.005385708524314119 0.00434150639835582
102023848 -0.005327719511516633 0.0044469809226550736
102053610 -0.0052457230267888835 0.004527476139302033
102083372 -0.005159138302055322 0.004608581741887926
102113134 -0.005077592808853142 0.004676904968104816
102142896 -0.004988795712559199 0.004751937443620748
102172658 -0.0049057741904608605 0.0048237433708271235
102202420 -0.004819363774245609 0.004887614735261933
102232182 -0.004784850599408428 0.00494053490635189
102261944 -0.0048662444510109235 0.004969900641956772
102291706 -0.004951175636136723 0.004987760079965196
102321468 -0.005035551165880421 0.005007593443219143
102351230 -0.005193447097621056 0.005031293639962918
102380992 -0.005148162900774058 0.005049676055464634
102410754 -0.00531026901072871 0.0050694904871350045
102440516 -0.005412371576883118 0.005078120421837258
102470278 -0.005509904898851635 0.0050876017233475734
102500040 -0.005600068976976874 0.005098786006284696
102529802 -0.005545604342550577 0.0051328714979363334
102559564 -0.0054824154277132815 0.005183782852171984
102589326 -0.005416836683263264 0.005218681537956558
102619088 -0.005462881076685213 0.005274456525832857
102648850 -0.0052967682541108395 0.005293717818627585
102678612 -0.005228292608161826 0.005333517298312628
102708374 -0.005169782736274047 0.005370057403465654
102738136 -0.005118747825955081 0.005394349696853182
102767898 -0.005044949442872168 0.005434294863541379
102797660 -0.0050112217249889575 0.005433229423349614
102827422 -0.004975412054813658 0.005411635606008631
102857184 -0.004954313834931871 0.0053980737760405215
102886946 -0.004926001159743011 0.005377320826899184
102916708 -0.0049025819704367375 0.0053599988849024295
102946470 -0.0048842678219857315 0.005345889491880993
102976232 -0.004852268921704409 0.005331408951535642
103005994 -0.004832707631902565 0.00531063749092185
103035756 -0.00480350359161619 0.005295256795135559
103065518 -0.004787859285612795 0.005295013793096085
103095280 -0.0047861995536318275 0.005330090209613089
103125042 -0.004784750186560672 0.005364950593421794
103154804 -0.004783433673069346 0.005401866323161833
103184566 -0.004784485911405597 0.005436542635183068
103214328 -0.004779903878460744 0.005471294348081709
103244090 -0.004774584585083848 0.0055044351090352515
103273852 -0.004778336904233409 0.005539716290506647
103303614 -0.004776069059910961 0.0055700676374619345
103333376 -0.004773506596665393 0.005603228695204203
103363138 -0.00467424938729424 0.005622438699323894
103392900 -0.004575001263811075 0.005638487190323301
103422662 -0.00447960215673542 0.0056452282000998945
103452424 -0.0043830282051335505 0.0056552451689840695
103482186 -0.004294226682332111 0.005661168198949569
103511948 -0.004192174627755016 0.005668109751375026
103541710 -0.00410590037839473 0.005672240413604925
103571472 -0.004012173097887868 0.005672108857356352
103601234 -0.003920281549465227 0.0056746475386343035
103630996 -0.003920406160730646 0.005668753482684668
103660758 -0.00396493806971456 0.005666334712481375
103690520 -0.003997582161833113 0.005656910041846319
103720282 -0.0040384517701352925 0.005649300784015528
103750044 -0.0040814610567754366 0.005640467254527179
103779806 -0.004117441148456892 0.00563019673724887
103809568 -0.004157288396736727 0.0056248116958939115
103839330 -0.004198523240220459 0.005606378191994449
103869092 -0.004241306893667326 0.005595986902591826
103898854 -0.004277266402617411 0.005591950729534908
103928616 -0.0043140970233771754 0.005618524123014576
103958378 -0.004351597471162499 0.0056415504400468015
103988140 -0.004389172199688508 0.005659832105428262
104017902 -0.004427082594667322 0.0056868124427213364
104047664 -0.004462769810728545 0.005704956923102622
104077426 -0.004507443476896111 0.005725721562919736
104107188 -0.004542174540734869 0.005750810788355424
104136950 -0.004587375550224824 0.005770305441000179
104166712 -0.0046279736897188 0.0057921307908828865
104196474 -0.004616321421005161 0.005842709790046272
104226236 -0.0045992813562834725 0.005896206584976644
104255998 -0.004583066473299569 0.005943307346437415
104285760 -0.004567279049115956 0.005994419416513952
104315522 -0.004553687351233127 0.006038896950878629
104345284 -0.004541292210616002 0.006092517492112607
104375046 -0.0045226929061331946 0.006141188563307738
104404808 -0.004507133339501258 0.006192911905066453
104434570 -0.004486492033540266 0.006243050460511406
104464332 -0.004467419201375302 0.0062247718096739985
104494094 -0.004451541764956991 0.006169336504760854
104523856 -0.004433247475843744 0.0061131186174738375
104553618 -0.004416751039703397 0.006055612259208598
104583380 -0.004397050943336247 0.0060009960807348535
104613142 -0.004377170054210314 0.005952192943309155
104642904 -0.0043603689991827035 0.005897695246564793
104672666 -0.0043416144800717755 0.005849799179884438
104702428 -0.0043195536374550265 0.005797174811016725
104732190 -0.004300626162921564 0.005788383394462982
104761952 -0.004281292040252136 0.005862111880022886
104791714 -0.004268033293843113 0.0059377222895743665
104821476 -0.00424522712474129 0.006013832551784147
104851238 -0.004225627233642429 0.0060946560798431455
104881000 -0.004200764676313409 0.006174365937861314
104910762 -0.00417543210212935 0.00625256852709938
104940524 -0.004126811681926486 0.006326995199417817
104970286 -0.004128865491095339 0.006410891338702764
105000048 -0.00410445646753713 0.0064925182901248895
