# HZ S RI R 50
90000000 -0.0009203762670660512 0.005511211506969102
90029762 -0.0008905231111935258 0.005542180634822868
90059524 -0.0011384322536457674 0.00556668906038863
90089286 -0.0010016223522150184 0.005606681108869948
90119048 -0.0011944579257547841 0.005631582947827511
90148810 -0.0010623580970445592 0.0056726625300569915
90178572 -0.0011268215259893554 0.005711186499425052
90208334 -0.0010715489583660645 0.00574081901328373
90238096 -0.0013239354859261457 0.005763481127246526
90267858 -0.0011924802384975185 0.005809413655356434
90297620 -0.001181599804869534 0.005787185519481333
90327382 -0.001102554350683867 0.0057503529179332305
90357144 -0.0011655502032710096 0.005702896126554309
90386906 -0.0010497343949453103 0.005659744575474431
90416668 -0.001233158543236258 0.005609347886531707
90446430 -0.001048268294584667 0.005573961047855807
90476192 -0.0009757111829426146 0.005534175722177699
90505954 -0.0009482329200427656 0.005493587989014041
90535716 -0.0009757819885939573 0.005449846849369044
90565478 -0.0008974388935355532 0.005430920468557035
90595240 -0.0009122117553356623 0.0054463683912298715
90625002 -0.0008770779993341493 0.005463500483861383
90654764 -0.0007946468611145514 0.005479299876318727
90684526 -0.0007593532711125951 0.005493231253693474
90714288 -0.0007700043155021653 0.005509928036194334
90744050 -0.0007349831988418818 0.005521793995993914
90773812 -0.0006515217091409153 0.005536964243963139
90803574 -0.000660509993429032 0.005552342159894704
90833336 -0.0005774591592144589 0.005563760196913437
90863098 -0.0005545500260378477 0.005544347297245872
90892860 -0.0005749105523552958 0.005521878722422028
90922622 -0.0005093096851562479 0.0054994127855307546
90952384 -0.0004853960511640013 0.005478548219253447
90982146 -0.0005068898909943441 0.005454163419948595
91011908 -0.0004433326667523548 0.005430288392475199
91041670 -0.00046205032255610534 0.005412023048027202
91071432 -0.0004419237688519365 0.00538638569269224
91101194 -0.0005461434436170083 0.005371225447019181
91130956 -0.00039016633818824174 0.005379302304004915
91160718 -0.00046324695636837404 0.005410653835415527
91190480 -0.0004949765101414509 0.005439627427836708
91220242 -0.0006562272366311195 0.0054735755374387095
91250004 -0.0005636412383836668 0.005504670741657838
91279766 -0.0007256547788602373 0.005533368455498653
91309528 -0.0005939139939230011 0.005568332454181436
91339290 -0.0006733930623501277 0.0055943179590082995
91369052 -0.0006700926737074914 0.005628747333483014
91398814 -0.0008611722575368686 0.005636749841220442
91428576 -0.0007301200911933957 0.005614535694670622
91458338 -0.0006882660639263908 0.0055924006091529685
91488100 -0.0007263697466357243 0.005568201683544553
91517862 -0.0007236570071608446 0.005540709536087588
91547624 -0.0006809003801286338 0.0055215324023227446
91577386 -0.0006768056813188433 0.00550058120594772
91607148 -0.000710345090941845 0.005473513498222665
91636910 -0.0006898220849196196 0.005447877746494418
91666672 -0.0006509626935780616 0.005428150519378575
91696434 -0.0006176822196457116 0.005444202585569385
91726196 -0.0005057595053782158 0.005465291023445283
91755958 -0.0004511338509973204 0.0054835470874769025
91785720 -0.00039752711244383143 0.005493042734469635
91815482 -0.0002862877439542125 0.005508434396431902
91845244 -0.0002274484212131577 0.005519360766484537
91875006 -0.00019024885338137762 0.0055314235257292645
91904768 -0.0002183108847115208 0.0055425739316098755
91934530 -3.5408763511144727e-05 0.005546194483905561
91964292 -1.1102976286194536e-05 0.005563426448776303
91994054 2.2159456220477804e-05 0.005588941653629523
92023816 -0.00011929834585169188 0.005617937111833758
92053578 -3.404486356163593e-05 0.0056395894766176555
92083340 -1.5374152493384614e-05 0.005661059968606255
92113102 1.6541809366959626e-05 0.00568492481765451
92142864 -1.896354643519693e-05 0.005710816322996788
92172626 1.1774882005877311e-05 0.005733460481670866
92202388 -0.00012814157988163085 0.0057599957225672556
92232150 -3.078615516326429e-05 0.005756281579690354
92261912 -0.0001519805741103233 0.005707498712068861
92291674 -3.848827958702865e-05 0.005655207985705823
92321436 -8.771058752182042e-05 0.0056002695142367736
92351198 -7.156358324090131e-05 0.005550662702090947
92380960 -0.0001182437631407897 0.00550341433816911
92410722 -0.00013044376437390531 0.005453500337912123
92440484 -0.00011744749532360699 0.005404024501841818
92470246 -0.0001286248457677766 0.005356788788368144
92500008 -0.00017086299358914141 0.005308329911191253
92529770 -0.00017721307463166493 0.0053311489650425615
92559532 -0.00015382391392005645 0.0053522741191190755
92589294 -0.0001907045710494885 0.005372438756751493
92619056 -0.0001659274068757373 0.0053951807692970664
92648818 -0.00017403667461937008 0.005416645711660162
92678580 -0.0002081734565662059 0.005437860569612523
92708342 -0.00018448751117639293 0.0054611810259885
92738104 -0.00019405516537839362 0.005484815326237773
92767866 -0.00022841752666363462 0.00550298335085741
92797628 -0.00018153179300791988 0.005523107566981363
92827390 -0.00018021138578118388 0.005529076068432066
92857152 -0.00015147493977085285 0.005542659565972194
92886914 -0.0001999496248945525 0.005552261163687163
92916676 -6.135131735990135e-05 0.005571820238469276
92946438 -5.425044180335079e-05 0.005579225004731136
92976200 -2.3378528359186757e-05 0.005593955383256668
93005962 -6.865151198336456e-05 0.005599464418978224
93035724 4.565502550270909e-05 0.005612856504111082
93065486 1.5132242677701668e-05 0.005620151362746056
93095248 0.00020048845559497147 0.005614076457539756
93125010 0.00019276469649331986 0.0056287626728673545
93154772 0.00034889739803492927 0.005608603712440279
93184534 0.00031586854034951027 0.00560336625090392
93214296 0.0005231484016577426 0.00557085715188598
93244058 0.00048368604940560986 0.00557803725986161
93273820 0.0006523136024965797 0.005550801260130872
93303582 0.0007191561836899697 0.005539417144887619
93333344 0.0008530573517644108 0.005505055931012108
93363106 0.0007997764393503562 0.005518629914298818
93392868 0.0007243417501024362 0.005529687823368761
93422630 0.0006712209286035761 0.005535532619740184
93452392 0.0006232603343177892 0.005548645983983387
93482154 0.0005638938376137684 0.005551138641742612
93511916 0.000530244906472652 0.005555151544576174
93541678 0.00047423332535953127 0.005554681936180554
93571440 0.00039903780706099104 0.005554009819902197
93601202 0.0002800507513429225 0.005659551784942939
93630964 0.00038661802078133654 0.005549816630154128
93660726 0.0004295445030596308 0.005546313187005987
93690488 0.0005093275117584203 0.005541615566198362
93720250 0.0005478935914015479 0.0055362760948846025
93750012 0.0006115805944550278 0.005528087867516148
93779774 0.0006909526517547339 0.005520777003229622
93809536 0.0006766885554251779 0.005511842252376694
93839298 0.0007970481301940314 0.005499847629110831
93869060 0.0008567273679454561 0.005488682236995019
93898822 0.0009221100641326575 0.00547361876195515
93928584 0.0009270256104427334 0.005455822597153401
93958346 0.0009614912180371084 0.005435105944747972
93988108 0.0009116415127502232 0.005419864931027593
94017870 0.0009835379829150836 0.005396105463147684
94047632 0.000954534955993421 0.005378876775686932
94077394 0.0010422061651958014 0.005354760095354709
94107156 0.0010444898595405384 0.0053349102760018065
94136918 0.0010815254412077635 0.0053134607843771525
94166680 0.0010883143648338447 0.005292781844030102
94196442 0.0011083341576382882 0.005557213902360721
94226204 0.0010787264544068946 0.00584595206896065
94255966 0.0011521014600526095 0.0061702173856822435
94285728 0.0011371062574574633 0.006535250377011694
94315490 0.0011270588311201152 0.006940256107652812
94345252 0.0011212326195137589 0.007397937615663401
94375014 0.0010451539550429842 0.00792182607329888
94404776 0.0009753726929149695 0.008515758712548002
94434538 0.0008360876335414219 0.009204708089156428
94464300 0.0008666321989579735 0.008925326641753242
94494062 0.0010136520274687383 0.008218831154552355
94523824 0.0011061004700762662 0.007615812642442892
94553586 0.0011516484063758617 0.007079406690823929
94583348 0.0012161848430691888 0.006611458863281748
94613110 0.0012315030135127904 0.006193801976849017
94642872 0.0012514140349239632 0.005817745959164738
94672634 0.001278197443814725 0.005482840636609599
94702396 0.0012831683621973662 0.005182577676228997
94732158 0.0012847184024528946 0.0049758969550978555
94761920 0.001310250144256955 0.004918208531667836
94791682 0.0013013503535446176 0.004864991329964961
94821444 0.0013546256188855937 0.004807039925496695
94851206 0.0013489685156139164 0.004750984345007492
94880968 0.0014121414639608131 0.004689683528185851
94910730 0.0014253319734000452 0.004635885367605681
94940492 0.0014546682257573734 0.0045794511050010105
94970254 0.001446944964633814 0.004522604807781071
95000016 0.0014927727651984266 0.004465030772534495
95029778 0.0014839213946655665 0.004474665638093436
95059540 0.001524626740075561 0.004479253366126406
95089302 0.0015402768347871926 0.004486256837698217
95119064 0.0015647847539703471 0.004490978946870883
95148826 0.001550992794218998 0.004496658289808907
95178588 0.0015915383364909252 0.004496645131112755
95208350 0.0016064731976428478 0.0045031465715473255
95238112 0.0016309524542534677 0.004503891190966875
95267874 0.001641629047081078 0.004506918021755805
95297636 0.001674214319642437 0.004490134079311521
95327398 0.0017020443053130583 0.004463318246646732
95357160 0.0017277916201633833 0.004436261091603851
95386922 0.0017581741373343827 0.004410773043989698
95416684 0.0017885619439797545 0.004384496356579932
95446446 0.001815268051721075 0.00435167993542081
95476208 0.0018481335598588442 0.0043205330320189046
95505970 0.0018728759465032661 0.004290532135020804
95535732 0.001904907960992233 0.0042537555555484784
95565494 0.0019466209299412059 0.0042175402596756634
95595256 0.001997454954455224 0.0041660812387637304
95625018 0.0020534157036494033 0.004122406729675531
95654780 0.0021053048640670554 0.004070693442273028
95684542 0.002156638050021539 0.004019115463549781
95714304 0.002206955578736594 0.003964910948014572
95744066 0.0022648974765861777 0.00391131775320748
95773828 0.0023049178652759373 0.0038539189979995654
95803590 0.002360982346011714 0.003787360597126807
95833352 0.0024083322645187155 0.00372920568259405
95863114 0.002413252212304498 0.0036420925231326396
95892876 0.002442273865831871 0.003554769534061324
95922638 0.0024507719213382 0.003467445595770217
95952400 0.0024654333051574964 0.003378372830587351
95982162 0.002478459162239436 0.0032861213374179594
96011924 0.002163575763462419 0.00330008845188884
96041686 0.0024986082053363996 0.0031092313672386085
96071448 0.0025606967966342194 0.003152335175275461
96101210 0.0025160384843139353 0.002923415441892825
96130972 0.0022332646399248336 0.002974546763323478
96160734 0.00252115835245856 0.0028177451643635835
96190496 0.0025933195278329403 0.002725807387413511
96220258 0.0025863576172909194 0.0026774430227510543
96250020 0.00263759189604778 0.002581173658618603
96279782 0.0026327345828202463 0.002536765697369756
96309544 0.002652904355258475 0.0024635628160050447
96339306 0.0026698324955029477 0.002391134918100215
96369068 0.00268585371480096 0.0023141573674944206
96398830 0.002702638891672192 0.0022363292934631236
96428592 0.0027466326016854677 0.002108999593837823
96458354 0.0027482088113716238 0.002044376402811702
96488116 0.0029752284939264374 0.001717966358241474
96517878 0.0027808405213518694 0.0018455571610772857
96547640 0.0027921462821689667 0.0017487829359594924
96577402 0.0028129956668484853 0.0016034309384608326
96607164 0.0028137775988535904 0.0015197308398934
96636926 0.0029475597233364777 0.0011563512859451995
96666688 0.002795387108333129 0.0013064532911110322
96696450 0.0027441166070767764 0.001192902825710853
96726212 0.0026932186993062165 0.0010873746900559953
96755974 0.0025394027775001637 0.0011819849126639822
96785736 0.0025852242674566524 0.0008635592916618679
96815498 0.0024579632439415025 0.0009617268437551943
96845260 0.0024622451792008426 0.0006385157059192513
96875022 0.0024126131418066863 0.0005305148943109706
96904784 0.0023415878309739663 0.0004333100829752701
96934546 0.0022744489742051515 0.00031342346198851343
96964308 0.0022176675444185636 0.00022059061247802798
96994070 0.002159549478782421 0.00011999492411667118
97023832 0.0019949534236691903 -0.00018740020159794757
97053594 0.002026121605251416 -7.72435203920368e-05
97083356 0.001966980315983226 -0.00016975074541623005
97113118 0.001991598617238523 -0.00010113092146687182
97142880 0.001813568751338919 -0.00036866928422122757
97172642 0.0015402403686148583 -0.0006271741527471687
97202404 0.0016598070939189647 -0.0005642958953817601
97232166 0.0015688745288403637 -0.0006663073532119997
97261928 0.0014778378350952177 -0.0007741575036307891
97291690 0.001369403073740214 -0.0008894176294555134
97321452 0.001258786524401073 -0.0009785122884020524
97351214 0.001156471632449274 -0.0010873405892989848
97380976 0.001043980985854726 -0.0011838866478824023
97410738 0.0009096539689971743 -0.0012670055846934118
97440500 0.0007871551968005314 -0.0013612542853734038
97470262 0.0002823979214496341 -0.0013796913010961284
97500024 0.0005149780151356783 -0.0015055602642264935
97529786 0.00038085308763940827 -0.0015970277394857669
97559548 -0.000176998730570891 -0.0014932383200036584
97589310 9.314589127894825e-05 -0.0017218876454401246
97619072 -0.00012144587264696889 -0.0017510256547308316
97648834 -0.00021938561360803835 -0.0018312291342936062
97678596 -0.0003800930802802247 -0.001865057695482657
97708358 -0.000960283055606471 -0.0015700023422420741
97738120 -0.0007021261281025179 -0.0019300497460970727
97767882 -0.000878599978988632 -0.001971378573258073
97797644 -0.0006171855143226057 -0.002302820073829939
97827406 -0.0012358687175831034 -0.0019220150573126256
97857168 -0.0014350806809971372 -0.001859346688752507
97886930 -0.0016211030961675082 -0.001798123964418591
97916692 -0.0014244397930984268 -0.0022173079284595588
97946454 -0.001963725837724056 -0.0016287151384214767
97976216 -0.0018022525749487649 -0.002092533316740055
98005978 -0.002463209107609876 -0.0008159483894504433
98035740 -0.0024122847917617935 -0.00133668857162897
98065502 -0.002541464887837006 -0.0012923863477715468
98095264 -0.0026635136298617996 -0.0012881017806087689
98125026 -0.0027885355850372565 -0.0012695095096524054
98154788 -0.003000421666633085 -0.0005570273691495909
98184550 -0.003027926992076889 -0.0012870376160112925
98214312 -0.003153281836312386 -0.0012934169357000094
98244074 -0.0033156023319540007 -0.000513793149432128
98273836 -0.003349982282564552 -0.0013551159259681139
98303598 -0.0034889774656473214 -0.0013223268982729018
98333360 -0.0035963813425085402 -0.0013348696283574549
98363122 -0.0036653169758544537 -0.0013257881313722907
98392884 -0.003750758843962328 -0.0012126624136287497
98422646 -0.003827908844936935 -0.0011985316972018558
98452408 -0.0039023475455773554 -0.0011384875731803134
98482170 -0.0039712121038496875 -0.001023611442573979
98511932 -0.004048010089893348 -0.0010049973441580125
98541694 -0.003988920459585131 -4.702465008517333e-05
98571456 -0.00414844458225398 -0.0008443410432342463
98601218 -0.004220168666101819 -0.0016552756758648165
98630980 -0.004271072566110074 -0.0006724340853575679
98660742 -0.004343331090923671 -0.0005646459650192315
98690504 -0.00418493229698838 0.0003882911648253331
98720266 -0.0045766358055374014 -0.0012125199186472995
98750028 -0.0045103553148169205 -0.0002298397831830671
98779790 -0.004559854285747951 -0.0001077771546552489
98809552 -0.004627597997940947 -4.832443392761005e-05
98839314 -0.004655246771718175 0.0001213772582104199
98869076 -0.004704703451017459 0.00017779257936713263
98898838 -0.0049995123183933276 -0.0005110885435849247
98928600 -0.004784887335569498 0.0003832372426274074
98958362 -0.0051374570686876075 -0.0003859727247570957
98988124 -0.004912929046895402 0.00045564126257276774
99017886 -0.0049535055650820605 0.0005827187623439249
99047648 -0.0050213428512191835 0.0005808913400659245
99077410 -0.0050474067103990035 0.000704272041140668
99107172 -0.00509159002088389 0.0007628704468755636
99136934 -0.00517075477241406 0.0007604032885623517
99166696 -0.005219721784424017 0.0008256439342102203
99196458 -0.005198711815329425 0.0009111910855787118
99226220 -0.0052184449407963185 0.0009576136452619601
99255982 -0.005269530093090253 0.0009287882928254921
99285744 -0.005257001972620314 0.001035530153248025
99315506 -0.005303634078207674 0.0009995558932217386
99345268 -0.005322353794044072 0.001043313255244387
99375030 -0.005295100908015848 0.0011353656225174822
99404792 -0.005340467516359151 0.0011109999850775544
99434554 -0.005362308411177058 0.0011421089983846774
99464316 -0.005310932336393313 0.0013174052177526176
99494078 -0.005324233122295587 0.0013992381100050202
99523840 -0.005259086040922833 0.0016202822481917525
99553602 -0.00523136625665714 0.0017602861386707103
99583364 -0.0057139257024494666 0.0012419198397836551
99613126 -0.004543925338297603 0.002619739007299897
99642888 -0.005106583616692283 0.0021664007286195364
99672650 -0.005049066435488463 0.002296316546289817
99702412 -0.0055526185499726695 0.0018620410473050464
99732174 -0.004971065974807512 0.0024982568633027838
99761936 -0.004863098082514587 0.0026252612097850654
99791698 -0.005115687428761371 0.0024196232762242844
99821460 -0.005113061015283503 0.002455223953284281
99851222 -0.0052182774170750675 0.0023793308401620604
99880984 -0.00578717506751451 0.0018402090447098055
99910746 -0.005245170690336794 0.002391981171794868
99940508 -0.005869359260095252 0.0017912475184174877
99970270 -0.005330435016487611 0.002342749204632056
100000032 -0.005366606418966571 0.0023243130328687105
100029794 -0.005362420056151108 0.0023762395714247747
100059556 -0.005363961553054732 0.0024231160082145145
100089318 -0.005366618345437562 0.0024802334231798884
100119080 -0.0053711776665563895 0.0025190497912647254
100148842 -0.005358407739458198 0.002587684611754447
100178604 -0.005361149312968875 0.0026308738581633058
100208366 -0.0053586775784837 0.002680623777074868
100238128 -0.005351895158445113 0.0027279538920006435
100267890 -0.005417217217057564 0.002735389561059181
100297652 -0.005353665373189136 0.0028283396986359876
100327414 -0.005356788467672407 0.002848019391245383
100357176 -0.005370788419005111 0.002892223107803159
100386938 -0.0053723110462357134 0.0029244422478960385
100416700 -0.005383400006082541 0.0029678459434371827
100446462 -0.0053812253952854995 0.0029990332703864887
100476224 -0.00539632199359114 0.003034641400843503
100505986 -0.005401661943951168 0.0030748110479660966
100535748 -0.005407490129051309 0.0030987805534651693
100565510 -0.005425388728170938 0.0031430330403342706
100595272 -0.00548370494769858 0.003192612043665875
100625034 -0.0055469709779069065 0.0032291995230381465
100654796 -0.0055967081692577724 0.003285826485378849
100684558 -0.005648908397135309 0.0033441660198411625
100714320 -0.0057115424038955845 0.00338524192892647
100744082 -0.005779323989074058 0.0034423072354216474
100773844 -0.005835676295602171 0.0034838270392189966
100803606 -0.005900692459312052 0.0035414426333157515
100833368 -0.005973980060117586 0.0035764791932886924
100863130 -0.005916544878424892 0.0036312687505535507
100892892 -0.00585852909742221 0.0036661233425766136
100922654 -0.0058079367281632065 0.003699492110914917
100952416 -0.005755362609795924 0.003734732054285913
100982178 -0.005704672406406981 0.0037679548482505722
101011940 -0.005645977546214665 0.003803792369817134
101041702 -0.005592165138195662 0.003839821224663008
101071464 -0.005539771907961617 0.0038684469999078087
101101226 -0.005485633258527353 0.003893874826342378
101130988 -0.005475093191650231 0.003928182634522975
101160750 -0.005465923126588262 0.003940980520087823
101190512 -0.005470553789797397 0.003961564618858172
101220274 -0.005567742932438519 0.003943482895263833
101250036 -0.005461784567000705 0.004000682332738486
101279798 -0.005453360201346199 0.004013930462779666
101309560 -0.005455848816933236 0.00403136568399019
101339322 -0.005446540586025916 0.004048250208649498
101369084 -0.0054513731814876355 0.0040633971401504146
101398846 -0.005426411660933269 0.0041080341462295545
101428608 -0.005383607855352812 0.004199916273564792
101458370 -0.005369871838770312 0.004289462931603056
101488132 -0.005315969882042391 0.004382544442096315
101517894 -0.005232053649827975 0.004485184737554927
101547656 -0.005163227113892262 0.004580163840078264
101577418 -0.0052210713143318755 0.004649227319233886
101607180 -0.005227805894773593 0.004726098917770573
101636942 -0.004987626313765463 0.004852713871611155
101666704 -0.004959664372019717 0.004936231970174483
101696466 -0.005039596746722111 0.004882701833403334
101726228 -0.005065164293698542 0.0048327252508709
101755990 -0.005133662698631137 0.004780833013054903
101785752 -0.005280245608466356 0.004699288690966848
101815514 -0.005297504760973602 0.004654868694009732
101845276 -0.005336761914143699 0.004598516675818957
101875038 -0.005388798262086588 0.0045269159206396915
101904800 -0.00544672798830906 0.004456574311296575
101934562 -0.005572517158139455 0.004362906389794166
101964324 -0.005468432333980582 0.004415836341970384
101994086 -0.005384413419218855 0.004495887838503345
102023848 -0.005302399235489802 0.004582591752965021
102053610 -0.005214001357624772 0.0046544739157363835
102083372 -0.0051341535339720365 0.004729567706080109
102113134 -0.005035198531850822 0.00480475693541282
102142896 -0.004954257294820113 0.004868516237119816
102172658 -0.004863195042987813 0.004937346112071187
102202420 -0.0047840254996491015 0.004991632734683115
102232182 -0.0047351192558345466 0.00504420287967891
102261944 -0.004819028078134836 0.005078580173609307
102291706 -0.004905719959996897 0.005095329920543564
102321468 -0.005054291839179232 0.005120760195147792
102351230 -0.005076089224209758 0.005136158216741612
102380992 -0.005101639116875386 0.005151577822133203
102410754 -0.00522817927283318 0.005169748573639192
102440516 -0.00535532409274893 0.005183462494276832
102470278 -0.00552405349983071 0.005190915136135473
102500040 -0.0055471530630296605 0.005202994854262115
102529802 -0.0055673894538771015 0.005244612555419793
102559564 -0.005427246002660325 0.005275490774376004
102589326 -0.005366536127483736 0.005308597809309158
102619088 -0.005309586702688534 0.005347056521974967
102648850 -0.005240540979139451 0.005378337276487241
102678612 -0.005177596789699353 0.005410741260142066
102708374 -0.0051152696421699955 0.005444822105438243
102738136 -0.005052916124428905 0.005476312738822478
102767898 -0.005088160956652309 0.0055097476099175355
102797660 -0.0049525118999462275 0.005505956501604736
102827422 -0.004925025373361091 0.005487256789278729
102857184 -0.0049047182034051414 0.005473467844982764
102886946 -0.004877685317148524 0.0054494036662183325
102916708 -0.0048490900722900085 0.005429455346098894
102946470 -0.004831084666318207 0.005413515487977324
102976232 -0.004803403047665657 0.005391413204099049
103005994 -0.004773743626379811 0.005371505973962664
103035756 -0.00475226798441761 0.0053580738396826035
103065518 -0.0047334244246792605 0.0053523149713569
103095280 -0.004730038315874312 0.005385158539377913
103125042 -0.004730356606017607 0.005419610954554507
103154804 -0.004731967069754557 0.005451656879009305
103184566 -0.004726351458891372 0.005486675483512708
103214328 -0.00472495419099489 0.005518220918492327
103244090 -0.004724471535120888 0.005554296261489907
103273852 -0.004722712420248328 0.00558450103727933
103303614 -0.00472683473517521 0.005616715932780253
103333376 -0.0047189950279800715 0.005653879708578704
103363138 -0.004618315218775971 0.005669897988579
103392900 -0.004518469022528188 0.005673094234202616
103422662 -0.004427857280575661 0.005684953488350058
103452424 -0.004332223303967022 0.005693871248222329
103482186 -0.00423815547437204 0.005701132768328498
103511948 -0.00414468984441512 0.005701553116156246
103541710 -0.004051543187054144 0.005701814693560257
103571472 -0.003962683481534559 0.005702517511087489
103601234 -0.003874872795279916 0.00570489538514465
103630996 -0.003871003138165568 0.0057026800500712795
103660758 -0.003912153545550509 0.0056897335568285405
103690520 -0.003954086716048526 0.005685593562877331
103720282 -0.003989773277831528 0.005675593510183172
103750044 -0.004032209948802579 0.005668115604547873
103779806 -0.004073950469665476 0.005658099957999634
103809568 -0.0041076439406766705 0.005641001030723566
103839330 -0.004153806455689586 0.005627798544226134
103869092 -0.004195351008458118 0.005618195047544048
103898854 -0.004232657578735125 0.005617901952110529
103928616 -0.004269585930324355 0.005639734307744345
103958378 -0.004307232207512438 0.005663180628185135
103988140 -0.004343953324189015 0.005685155193873098
104017902 -0.004383977214878589 0.005706221995843268
104047664 -0.0044249654982283105 0.005733312226492685
104077426 -0.0044613067849679664 0.005744733374587158
104107188 -0.0045040566889000795 0.005767089603189649
104136950 -0.0045432872808396285 0.005789173200695044
104166712 -0.004589631078941805 0.005809052912385
104196474 -0.004574357480778966 0.005857013821566882
104226236 -0.00456054247877094 0.005909023230838254
104255998 -0.004544905143901527 0.005957199235502689
104285760 -0.004528578738869874 0.006006285095029804
104315522 -0.004523316851515025 0.006054054422154159
104345284 -0.004503790852732916 0.0061045017575722706
104375046 -0.0044863139243110466 0.006150141064084912
104404808 -0.004470227395560183 0.0062019176083228985
104434570 -0.004455493897406825 0.0062510856335159315
104464332 -0.00443903628826302 0.0062307227395259615
104494094 -0.004422048714425649 0.006179624156233515
104523856 -0.004400312517768309 0.006119571346630841
104553618 -0.004383259460477374 0.0060644124047106295
104583380 -0.004366443186465709 0.006012433019132205
104613142 -0.004351578316142219 0.005956595669641268
104642904 -0.004332965675045302 0.005903554283256211
104672666 -0.004308767845763479 0.005851418457063755
104702428 -0.004295730316122126 0.0057985208431060335
104732190 -0.004273768866334254 0.005798001500680438
104761952 -0.00425779337181851 0.005864544747298828
104791714 -0.00423918357538102 0.005943380506580154
104821476 -0.004220935494612323 0.006018532088486608
104851238 -0.004200312384985486 0.0060969998527552515
104881000 -0.004181059979458594 0.006173988718372073
104910762 -0.004154317788639796 0.006252976520717685
104940524 -0.004127578643774661 0.006329895290284022
104970286 -0.0041010238907889475 0.006407714132062184
105000048 -0.004069009896146464 0.006498565229847119
