# HZ S RI R 50
90000000 -0.0009133987202469454 0.005505089039669897
90029762 -0.000886137535178006 0.00553752769362292
90059524 -0.001130023136723062 0.005566327612606797
90089286 -0.0009958505328684117 0.0056063790958719864
90119048 -0.0011878067330677788 0.005630603835740791
90148810 -0.0010553899613857355 0.005671811227790335
90178572 -0.001175415607958184 0.005709599721119261
90208334 -0.0010628600013427498 0.00574046424860884
90238096 -0.001315388024651592 0.005764015004232627
90267858 -0.0011853841351296176 0.005807215476415651
90297620 -0.0011773387308100316 0.005784593706865945
90327382 -0.001149593618049924 0.005747492076682484
90357144 -0.0011211630972738436 0.0056993346554079375
90386906 -0.0010415614609419327 0.005659632019701885
90416668 -0.0012245113280360703 0.005605779729804093
90446430 -0.001042735125487231 0.0055724689419579185
90476192 -0.0010211002300497538 0.00553576441621414
90505954 -0.0009437587619853164 0.005491529484040331
90535716 -0.0009682288446724008 0.005449093506568307
90565478 -0.0008921793924167672 0.005429132823384703
90595240 -0.0009217792416010719 0.00544357144390282
90625002 -0.0008680080636875284 0.00545985955882174
90654764 -0.0007866818061999732 0.005477363970647773
90684526 -0.0007503842436437502 0.005491221926383759
90714288 -0.0007627286567120595 0.00550697763235513
90744050 -0.000726035698770154 0.00551854624254907
90773812 -0.0006423577145037412 0.005532902132614093
90803574 -0.0006523154913074152 0.005548261827241976
90833336 -0.0005692509446244167 0.005562566226018731
90863098 -0.0005461619122313552 0.005539629509519858
90892860 -0.0005688579650558592 0.005520352124670767
90922622 -0.0005020853496278511 0.005492453518830066
90952384 -0.00047730203396572843 0.005472152019563814
90982146 -0.0004997439232370999 0.005452046863982173
91011908 -0.00043403958313995705 0.0054274459829097375
91041670 -0.00045488751742417166 0.005405223768662194
91071432 -0.00043280833191375404 0.005384127584093028
91101194 -0.0005387233250536248 0.005364252733082303
91130956 -0.0003818453016899804 0.005375920258789187
91160718 -0.0004557565184390216 0.005406504150596776
91190480 -0.0004862804852828399 0.005438454048571501
91220242 -0.0006471056826314034 0.005470943904821675
91250004 -0.000555075857441185 0.005503328416347257
91279766 -0.000715219717583581 0.005532198927668121
91309528 -0.000583728143952951 0.005563065545333028
91339290 -0.0006639911203049889 0.00559425507689859
91369052 -0.000659468336263581 0.005622025405833611
91398814 -0.0008511165930776403 0.00563170113377051
91428576 -0.000721460178738892 0.005611686965919508
91458338 -0.0006797276825582649 0.005584347208134687
91488100 -0.0007148238263273472 0.005564325094157358
91517862 -0.0007122651533212659 0.005541567810308318
91547624 -0.0006704615086711661 0.005519261649267039
91577386 -0.0007179797584830437 0.0054964817563541496
91607148 -0.0007036626634431827 0.005466841466704524
91636910 -0.0006953197118164791 0.005445931755089762
91666672 -0.0006571396335912458 0.00542330034101031
91696434 -0.0006225763025189558 0.005443963531442828
91726196 -0.000512103198886937 0.005458884908782093
91755958 -0.00043955835253222086 0.005478388920310285
91785720 -0.0004032454644228384 0.005489643614841798
91815482 -0.00029126139120690434 0.005504431807636625
91845244 -0.0002183937434445051 0.005515986343040948
91875006 -0.00019409141346957016 0.005527500392279884
91904768 -0.00021015435778976263 0.005538062350487493
91934530 -2.2915001166260732e-05 0.005541266960796307
91964292 -2.1459069949621375e-07 0.00555935113361403
91994054 3.419887502346448e-05 0.0055808182521093885
92023816 -0.00010928253265004994 0.005611263107438634
92053578 -2.8066921274143373e-06 0.005629838908020768
92083340 -5.116943340200466e-06 0.005655601297678433
92113102 2.8298495361325695e-05 0.00567590141079997
92142864 -7.617284453963221e-06 0.005701351123357945
92172626 2.4977099076233818e-05 0.005725493120368745
92202388 -0.00011533650879121509 0.0057547099759797105
92232150 -1.714022033003497e-05 0.005750704608259326
92261912 -0.0001389666934573706 0.005700479944757936
92291674 -2.2882527472019976e-05 0.0056462837566252835
92321436 -7.454686618881616e-05 0.005596167843338587
92351198 -5.910550618439817e-05 0.005546504181869422
92380960 -0.00010701744346892229 0.005495983173364588
92410722 -0.00011966555787011107 0.005447122896332876
92440484 -0.00010393902505749671 0.005394849235280291
92470246 -0.00011651477062298848 0.005349701975966168
92500008 -0.00015669271356450308 0.005299937441356386
92529770 -0.0001637753162077919 0.005322982427020636
92559532 -0.00014259303126780607 0.005345159668601008
92589294 -0.00017495040098943577 0.005364635180674644
92619056 -0.0001530320513424756 0.0053844343387714905
92648818 -0.00015786023456407447 0.005410500901429899
92678580 -0.00019374552760228884 0.005431045684701432
92708342 -0.00017240568105384173 0.005453865309233297
92738104 -0.00017738048956048851 0.005471418571633584
92767866 -0.00021321122891835526 0.005497232237321477
92797628 -0.00016848716577637138 0.005513086813376603
92827390 -0.0001648703717773328 0.005523105372837353
92857152 -0.00013287635932035668 0.005535977391322005
92886914 -0.0001835920063620103 0.005544387874133583
92916676 -4.155612681752545e-05 0.005560573957969545
92946438 -3.984637863039327e-05 0.005572399235376038
92976200 -7.5212707129518625e-06 0.005581909660396335
93005962 -5.2667662132561917e-05 0.0055907402277005575
93035724 5.9795532058513105e-05 0.005605299268932855
93065486 3.351088700079828e-05 0.005608462725716606
93095248 0.00021711459418076218 0.005606158204786338
93125010 0.0002746464798928232 0.005598908384748223
93154772 0.0004159914619730424 0.005579298253723863
93184534 0.0003330705797600607 0.005588317899038715
93214296 0.0005213509908548086 0.005566071783703263
93244058 0.0005331070119318826 0.0055523871905133375
93273820 0.0006867261486760702 0.005532978476014987
93303582 0.0007670710095973349 0.005513782541454116
93333344 0.0008577425893031292 0.005496863119811881
93363106 0.0008178444174914283 0.005503082004896137
93392868 0.0007424825162859102 0.005518050852284652
93422630 0.0006884145927152584 0.005523483700667403
93452392 0.0006580650321294872 0.005531670844754229
93482154 0.0005808805368450156 0.00553593435650917
93511916 0.0005518656039749234 0.005537252364987988
93541678 0.0004944810369786124 0.005543176002061357
93571440 0.0004214492120707356 0.00554184087980094
93601202 0.0003867550250030262 0.005541402118512146
93630964 0.00040933253442185073 0.0055359623583800255
93660726 0.0004501479113769266 0.005530814836082783
93690488 0.0005281573001150893 0.005526681525167419
93720250 0.0005876224528714039 0.005517617497954437
93750012 0.0006162173013375007 0.005516407435487938
93779774 0.000728943356809118 0.0054995472756678545
93809536 0.00068190100235062 0.005497437435541232
93839298 0.0008333580845456215 0.00548303921170507
93869060 0.0008782521442827857 0.005471927809924327
93898822 0.000944064169550427 0.005456529232405707
93928584 0.0009447439899710687 0.005439518174540141
93958346 0.0009849409407132646 0.005416503549494107
93988108 0.0009360087829395269 0.005399982094201426
94017870 0.0010063073028084033 0.005375687443560468
94047632 0.0009759648361681513 0.005359255976567253
94077394 0.0010653654730508342 0.005339560525171763
94107156 0.0010667476301858836 0.005317836272094657
94136918 0.0011057677852880452 0.005292821438748073
94166680 0.0011131674362756768 0.0052717041204064395
94196442 0.001135039608151284 0.005535423037291458
94226204 0.0011054855778388857 0.005825533894761464
94255966 0.0011836180530772468 0.00614946238792051
94285728 0.0011689086334176172 0.006505671000755136
94315490 0.0011626573341878008 0.00691060838386957
94345252 0.0011592102633237674 0.007371526479615712
94375014 0.0010895044442798948 0.007890148089001327
94404776 0.0010203421088791742 0.008486150508027916
94434538 0.0008921541635702317 0.009168798698143597
94464300 0.0009178649720781423 0.008889113984562933
94494062 0.0010611384482355059 0.00819075166432921
94523824 0.0011466413112019547 0.007579730752786532
94553586 0.0011938519033241344 0.007048361614129477
94583348 0.001249771345822362 0.006577147164531652
94613110 0.0012676993688946112 0.006162079928724995
94642872 0.0012863973326578979 0.005789954513212769
94672634 0.001310838572928932 0.005454164110259264
94702396 0.0013154950179298556 0.005153251941915636
94732158 0.0013170599625967024 0.004946277288308691
94761920 0.0013378875849952118 0.0048898370913212355
94791682 0.0013363029015949163 0.0048332449316501385
94821444 0.0013860693345096773 0.004776943731419614
94851206 0.0013846320556279406 0.0047174484463464875
94880968 0.0014441555790159592 0.004659162553014603
94910730 0.0014548266752069884 0.004602945484015045
94940492 0.0014869441407002445 0.004545004794716617
94970254 0.001477323639474589 0.004492297688502705
95000016 0.0015202399680278864 0.004433008489434214
95029778 0.0015182801037302968 0.004439117626260989
95059540 0.0015575639681134274 0.004443358232498253
95089302 0.001574772051451069 0.004449340959720804
95119064 0.0016004500446078515 0.0044529140115112465
95148826 0.0015889240396235623 0.00445890380279292
95178588 0.0016281396638021242 0.004459194461278302
95208350 0.0016419049922464788 0.004460891920476375
95238112 0.0016685443891119379 0.004461109185004334
95267874 0.0016815169557943075 0.004463456527091741
95297636 0.00171523968407691 0.004449553990454676
95327398 0.001742454199096883 0.004419171725993304
95357160 0.0017659265884336886 0.004392534823359254
95386922 0.0017999003203022237 0.004363144339414022
95416684 0.0018312594606882122 0.004332308930227467
95446446 0.0018586370982145483 0.004300897486831605
95476208 0.0018961963545656932 0.004266212208128564
95505970 0.0019196785673614369 0.004235521257942974
95535732 0.0019516420826595992 0.004198396672948604
95565494 0.0019890720909338006 0.004160488734724595
95595256 0.002047254304940173 0.0041114362631823505
95625018 0.002097809684803034 0.004059263508940117
95654780 0.0021499942533513244 0.004006859081577437
95684542 0.002205552301762326 0.003952546783972347
95714304 0.0022560000879160275 0.003896011261010245
95744066 0.0023111043232566975 0.003837014184721946
95773828 0.0023509457734676845 0.0037759535485515708
95803590 0.002407005307699063 0.0037142978465179136
95833352 0.002452463152794316 0.0036492377381060477
95863114 0.002472152038090162 0.0035566962437120504
95892876 0.0024855861732690316 0.0034711040615559774
95922638 0.0025027147385643105 0.0033785695168357037
95952400 0.0025145501326053876 0.003289304567368464
95982162 0.002521632605033169 0.0032046975571620256
96011924 0.002184618869937526 0.003206553806019564
96041686 0.002515615858491885 0.0030038348194672375
96071448 0.0025229022532238378 0.0029127149206085853
96101210 0.002525600833382544 0.0028174086646912404
96130972 0.002246502888276727 0.002875315661669995
96160734 0.002552884176371637 0.0026880433068686505
96190496 0.002559814608827909 0.0026400955436388963
96220258 0.00259339923456236 0.002558951163275466
96250020 0.0025878271718228333 0.0025107385847356395
96279782 0.0026344774676989595 0.0024163110200143404
96309544 0.002668223155869827 0.0023234384234815104
96339306 0.002660879770891872 0.002264376619010409
96369068 0.0026579521711965386 0.0022000622237639254
96398830 0.002689453365908533 0.002099106983515568
96428592 0.002708601818733158 0.002013536966854038
96458354 0.002718124922015344 0.0019090789710589713
96488116 0.0029295563661344078 0.0015761317700444767
96517878 0.0027404078215985017 0.0017063930177633197
96547640 0.002748969702178182 0.0015984565291527664
96577402 0.00274768510709246 0.0014959229063774796
96607164 0.0027278515504177005 0.0014179896887170534
96636926 0.0028614680252675717 0.0010224717844647734
96666688 0.0027293964177346752 0.0011612247927792968
96696450 0.0026683166728031565 0.0010744716446539526
96726212 0.0026299958878395003 0.0009410000842016479
96755974 0.0024817200620624556 0.0010344845653473896
96785736 0.0025055440218560827 0.0007216797650992606
96815498 0.00239011765256686 0.0008106355713916369
96845260 0.002379427137750453 0.0004954426363825309
96875022 0.002313896038045254 0.0003938943944347793
96904784 0.0022380578631712804 0.000300587883953625
96934546 0.0021702605169978753 0.0001690818031512081
96964308 0.002100706641194731 8.943905635341467e-05
96994070 0.0020450316399703993 -7.908184516743298e-06
97023832 0.0018524579576804532 -0.00030412478268581803
97053594 0.0019001746994380933 -0.00020834027932541233
97083356 0.001846451737450925 -0.00029524805431302946
97113118 0.0018953924975173761 -0.00023556864941866727
97142880 0.001676501453575947 -0.0004867518531021592
97172642 0.001377973776044218 -0.0007174594055377502
97202404 0.0015111422786966374 -0.0006737902175619519
97232166 0.0014160354001333557 -0.0007715263626324648
97261928 0.0013251398248367934 -0.0008753957922502623
97291690 0.0012115074125018087 -0.0009848695030612365
97321452 0.0010952950547067175 -0.0010752242121023462
97351214 0.0009919805954712153 -0.0011682296671513817
97380976 0.0008773506586918988 -0.0012643549782471405
97410738 0.0007337090940450644 -0.0013388857475705605
97440500 0.0005950483161428821 -0.0014246480590390353
97470262 9.338518279555391e-05 -0.0013870445895305913
97500024 0.0003328062007485545 -0.00155713031628979
97529786 0.00020364172174906702 -0.0016307518055991895
97559548 -0.0003540617349114941 -0.0014943839467845372
97589310 -0.00011798694448222441 -0.0017324327878653315
97619072 -0.00029754457645942057 -0.0017609345378076882
97648834 -0.00040131555279585126 -0.0018355635072358843
97678596 -0.0005787033586255008 -0.0018587188885092292
97708358 -0.0011376046950128994 -0.0015129682711397393
97738120 -0.0008932280358481677 -0.0019101886156284646
97767882 -0.001053768529536298 -0.0019320620393354121
97797644 -0.000799487585373275 -0.0022986764888497354
97827406 -0.0014119615815140407 -0.0018842388252975147
97857168 -0.0015976141624005405 -0.0018030272880408692
97886930 -0.0017818749095204719 -0.0017439880935303223
97916692 -0.0015927349591102233 -0.002189591903930855
97946454 -0.0021011900347427206 -0.0015727907207807863
97976216 -0.00196571521134404 -0.0020393112997228444
98005978 -0.002558950837558266 -0.0007170660296124525
98035740 -0.0025367436648970937 -0.001255174386422752
98065502 -0.002640973983683967 -0.0011894758524535923
98095264 -0.002760377642381368 -0.001204224234991181
98125026 -0.00288858775980032 -0.0011731965441754055
98154788 -0.0030740887907909804 -0.0004611192113182794
98184550 -0.003122032316979684 -0.0012026424465778065
98214312 -0.0032337143763906434 -0.0011993537972644016
98244074 -0.003394143199629982 -0.00042373638206113373
98273836 -0.003444852740001284 -0.0012816149451665552
98303598 -0.0035649207891332467 -0.0012401991661051717
98333360 -0.003670177829701884 -0.0012562237344942396
98363122 -0.0037481665120507966 -0.0012404662568629892
98392884 -0.003822340836671102 -0.0011468519173174817
98422646 -0.0038969111618565575 -0.0011318475112757317
98452408 -0.003965675305159442 -0.00107295540289676
98482170 -0.004025796101030587 -0.0009575157192161035
98511932 -0.004090675436713515 -0.0009624719739806433
98541694 -0.004021724051894816 1.5167236553928207e-05
98571456 -0.00420024247158868 -0.0007676461058041558
98601218 -0.004276405002815494 -0.001601230127701957
98630980 -0.004306664818164658 -0.0006156017772685383
98660742 -0.004383834196694542 -0.0005049285193415374
98690504 -0.004201458634914591 0.0004303258179694877
98720266 -0.004632449570964785 -0.001163073913858217
98750028 -0.0045466882419034444 -0.00017719830894683282
98779790 -0.00458963366185712 -7.177479957939593e-05
98809552 -0.004663071490264087 -9.662766840893904e-06
98839314 -0.004677789390243253 0.0001499326393020094
98869076 -0.00472701880753152 0.0002190029213359003
98898838 -0.005042257804071961 -0.0004782603187171475
98928600 -0.004812824555307979 0.00044444759424490637
98958362 -0.0051746860714875255 -0.0003413873584418593
98988124 -0.004976994600661977 0.00046023287222760653
99017886 -0.004991095158403875 0.0006773700012255736
99047648 -0.0049700805190971585 0.0007313183252073539
99077410 -0.005073019317922737 0.0007729039867891327
99107172 -0.005121450460129903 0.0008327215457659968
99136934 -0.005203981752028279 0.0008254274767642106
99166696 -0.005247794152994568 0.0008918230109206487
99196458 -0.005234126610479929 0.0009877767087219168
99226220 -0.005320868651756877 0.0009497426107151429
99255982 -0.005061526805561008 0.0008088330460946504
99285744 -0.005250733804464469 0.0011255085851962425
99315506 -0.0053373049630890766 0.0010709301863099808
99345268 -0.005351589185544553 0.0011066534378981988
99375030 -0.005320333678445759 0.0012014755006674912
99404792 -0.0053949222317652284 0.0011352971330678473
99434554 -0.005383359758486853 0.0011968228557176304
99464316 -0.0053375535793120195 0.0013729383095656563
99494078 -0.005356703584947859 0.0014592800837507124
99523840 -0.005277815155599307 0.0016648960366747534
99553602 -0.005245403058744592 0.0018188023693277331
99583364 -0.005743572888930251 0.0012924165132729517
99613126 -0.004526771395577559 0.0026882475622897173
99642888 -0.005110891774742744 0.0022181189083807637
99672650 -0.0050662780814436 0.0023476451254218086
99702412 -0.0055721882120171205 0.0019134885937756073
99732174 -0.004987351595764818 0.0025509872055542175
99761936 -0.004878302024193936 0.0026649520324749446
99791698 -0.00535719241080244 0.0024915779234876666
99821460 -0.005127070972736193 0.0024967047308048856
99851222 -0.0052315097942592405 0.002431597826197551
99880984 -0.005800514548179477 0.001890190798791181
99910746 -0.005253075610861888 0.0024358810963042627
99940508 -0.005893358260485053 0.00183950651725338
99970270 -0.005339392643249839 0.002395273468780788
100000032 -0.0053814082332111395 0.0023854647537934156
100029794 -0.005365504705003273 0.002422889890930908
100059556 -0.005369998032401577 0.00247694129946736
100089318 -0.005367728538019886 0.002524930899254249
100119080 -0.005369823551015122 0.002575993209210189
100148842 -0.005368983532929751 0.00262057531521536
100178604 -0.0053614869326525745 0.0026821130926017816
100208366 -0.005365562754976302 0.002732018637634847
100238128 -0.005363774556421324 0.0027802102322485945
100267890 -0.00534931012381819 0.00283002875047699
100297652 -0.005358928153543235 0.0028610941899945255
100327414 -0.005365515132014729 0.0029031542573679722
100357176 -0.005366668227232106 0.0029469505594157627
100386938 -0.005372230817961992 0.0029794373716183643
100416700 -0.005385711928029413 0.0030177371089720262
100446462 -0.005392560886797839 0.003048155248348521
100476224 -0.005401364350124796 0.0030811859001226897
100505986 -0.005398328744486152 0.003118783637294823
100535748 -0.005405683242176629 0.003147969928096187
100565510 -0.005427960863215846 0.0031801630595109467
100595272 -0.005481967415695976 0.003231020404187563
100625034 -0.005539526234737947 0.003280596395745551
100654796 -0.0055972247185256145 0.0033342804770674916
100684558 -0.0056557386189483305 0.003380999596465083
100714320 -0.005716512643827463 0.0034356413591867686
100744082 -0.005774486592262013 0.0034881532604214794
100773844 -0.005840352089390202 0.003533358796741994
100803606 -0.005900778941937029 0.0035913295041392406
100833368 -0.0059663221699303905 0.003637986923694366
100863130 -0.005918051441624936 0.0036731306850439475
100892892 -0.005853392839620605 0.003718247372671109
100922654 -0.005806863478164551 0.0037427256456659293
100952416 -0.005755720899405724 0.0037856950050146106
100982178 -0.005700038765746639 0.00381560531856277
101011940 -0.005637904679925858 0.0038472286487676328
101041702 -0.005593597610600026 0.0038925631066699154
101071464 -0.005535102045692253 0.003916158037628216
101101226 -0.005483839853530493 0.003948640650025015
101130988 -0.005469985661847094 0.003970771177915849
101160750 -0.0054664359212153605 0.003983520924417068
101190512 -0.005468512416852668 0.004009448624288972
101220274 -0.005458386689040282 0.004030091719533272
101250036 -0.005454142223385964 0.004036082672241855
101279798 -0.005454847051975019 0.004061051320341445
101309560 -0.005451203005659112 0.004076793874653967
101339322 -0.005446092497016802 0.00408749019739377
101369084 -0.0054441763410416006 0.0041099240296446436
101398846 -0.005426314379604972 0.004151691437105026
101428608 -0.005379314865267614 0.00425110850154244
101458370 -0.005327323676369489 0.00434767484693564
101488132 -0.005274654692777718 0.0044404026578736
101517894 -0.005219590264072026 0.004528511029238409
101547656 -0.005158636045669324 0.004621357669185417
101577418 -0.005101716905220267 0.004709765737182514
101607180 -0.005042747910653452 0.004801036381092
101636942 -0.004976615285453076 0.00489048294779072
101666704 -0.004944133463468599 0.0049614863597883295
101696466 -0.00498212729316078 0.004927177308079669
101726228 -0.005060721147129831 0.00486834717921397
101755990 -0.005125654516496308 0.004817075406759283
101785752 -0.005193859870153335 0.004761234448576952
101815514 -0.005259519030912721 0.004687454877810959
101845276 -0.005324004112122075 0.004631301605782211
101875038 -0.005381455138676131 0.004563067842073672
101904800 -0.00543473426890226 0.004495581715443219
101934562 -0.005492175470597345 0.004417296916523198
101964324 -0.0054611380977753555 0.00444230350985235
101994086 -0.0053715998151304565 0.0045324204302322766
102023848 -0.005289584740733949 0.004610076511179164
102053610 -0.005206331437381688 0.0046828802226037665
102083372 -0.0051180717346262835 0.004758671465570274
102113134 -0.005034344359513193 0.00483770917752903
102142896 -0.0049370643058847434 0.004905641370549427
102172658 -0.004855982327594079 0.004962357919877615
102202420 -0.004757625344972484 0.005027421474765859
102232182 -0.004818677192276429 0.00509188289099141
102261944 -0.004770700839362969 0.005106464187068083
102291706 -0.004888784279933193 0.005124771246283576
102321468 -0.004909770323070966 0.005141393962460062
102351230 -0.005062507331535738 0.005163043690818916
102380992 -0.005159517619671231 0.005175173017572095
102410754 -0.005253236576010495 0.005192430135609473
102440516 -0.005408332669115382 0.005215238773956089
102470278 -0.005438263198534893 0.005220107874791047
102500040 -0.005508834765062254 0.0052245023796404525
102529802 -0.005444570714025082 0.005268452035082294
102559564 -0.005379731731920983 0.005304993471704104
102589326 -0.005316573547502825 0.005342136166080391
102619088 -0.005257606209236119 0.0053754294407873495
102648850 -0.005259989644900928 0.005411637444553727
102678612 -0.005132520646911051 0.0054381682705606105
102708374 -0.005070607541764321 0.005470604500734961
102738136 -0.005006492589925968 0.005502362786904767
102767898 -0.004975674100838725 0.005530718701277003
102797660 -0.004936049602350464 0.0055227467648599595
102827422 -0.004860613940554676 0.0053243983682585904
102857184 -0.004890184787420698 0.005488447210063894
102886946 -0.004864650391023952 0.0054706428523131016
102916708 -0.004839821381055612 0.005443285068663049
102946470 -0.004816283827705395 0.005428392857600284
102976232 -0.00478607241180481 0.005408306446906524
103005994 -0.004761126585120495 0.005389027135725545
103035756 -0.004740467761346455 0.005369383272510739
103065518 -0.004723431712574243 0.005366187631970436
103095280 -0.004721433728710367 0.005397121177956281
103125042 -0.004717165797887635 0.005432532617451533
103154804 -0.0047165793033456 0.005467541964145031
103184566 -0.00471471359198798 0.005497499375854254
103214328 -0.0047147061165915835 0.005537808588087954
103244090 -0.004712166834405343 0.00556861005479634
103273852 -0.004708693259033206 0.005602941021825507
103303614 -0.004709042952314901 0.00563371806480955
103333376 -0.004706221515796849 0.005667453971289305
103363138 -0.004608179706698965 0.005677344602558907
103392900 -0.004507720128039731 0.005689312681828174
103422662 -0.0044195566643786145 0.005698027530240798
103452424 -0.004325174677462195 0.005706772732553836
103482186 -0.0042272706666721905 0.005708660278576826
103511948 -0.004136192354598718 0.005711987782919412
103541710 -0.0040422927953721625 0.005716108970992763
103571472 -0.003954036005804106 0.005712680047959004
103601234 -0.003863233598682641 0.005710538943025972
103630996 -0.003859413616128716 0.005709635609139317
103660758 -0.003901052092926249 0.005699815840078847
103690520 -0.003935387176417555 0.005690537030483786
103720282 -0.003982151433393748 0.005682626305298967
103750044 -0.004022701477543891 0.005677598425802404
103779806 -0.004056598346856085 0.005664637709915883
103809568 -0.004101611321665662 0.00565171290767307
103839330 -0.004148156911363898 0.005640876405969929
103869092 -0.004185464506276226 0.005626817719975495
103898854 -0.004228122130574604 0.00562677309680693
103928616 -0.0042664036127515 0.005647184597206923
103958378 -0.004298721580490079 0.005663748310558517
103988140 -0.004331229118438455 0.005687289175212275
104017902 -0.004375901359784383 0.005711675991748964
104047664 -0.004416298026487193 0.005736485015167599
104077426 -0.004452588333211112 0.005754098896139524
104107188 -0.004493612205075696 0.005772560706198472
104136950 -0.004540131080762725 0.005797952506755731
104166712 -0.004579632768803282 0.005817602300193732
104196474 -0.00456592531737894 0.0058653120790663794
104226236 -0.004554600928783005 0.005914946009415958
104255998 -0.004534899274561085 0.005963946431060295
104285760 -0.004521475259223232 0.00601347288057297
104315522 -0.0045081137128229936 0.00606294346121115
104345284 -0.004487400208675152 0.006113029744022545
104375046 -0.004479307328672802 0.00615758420855244
104404808 -0.004464038800244309 0.006208880045660309
104434570 -0.004450010996450764 0.006259822214503642
104464332 -0.0044276469071659365 0.006242723127440818
104494094 -0.0044149290436630425 0.006186587571510465
104523856 -0.004366383398662541 0.006127812581998556
104553618 -0.004377810068020031 0.006074125714453525
104583380 -0.0043607106755245905 0.0060179078081296486
104613142 -0.004343247663870284 0.005967221488565215
104642904 -0.004328169860542862 0.005910562959705033
104672666 -0.004303495266398663 0.005860068061816402
104702428 -0.004284295706455464 0.005808407050992062
104732190 -0.004270446313664992 0.00580569420459365
104761952 -0.004251223202523138 0.005871676567333381
104791714 -0.004230068509360933 0.005951338968235048
104821476 -0.004213192653621558 0.006025892973607216
104851238 -0.004195466802747282 0.00610569326551547
104881000 -0.004176304079831782 0.0061778209467211395
104910762 -0.004146277833854689 0.006260912232399018
104940524 -0.00412299042969123 0.006342256887302465
104970286 -0.004099934704268916 0.006419449954301632
105000048 -0.004078117824281001 0.0064970326247116164
