# HZ S RI R 50
90000000 -0.000903339475535129 0.005503023224779787
90029762 -0.0008951497309828509 0.005537230855077732
90059524 -0.0011223757222133006 0.005562839949413997
90089286 -0.0009874996081643047 0.005602107513321884
90119048 -0.0011809149018311318 0.0056289443676735395
90148810 -0.0010456749857556315 0.005670391435015624
90178572 -0.001075616809429822 0.005702197201907309
90208334 -0.0010712703079638777 0.0057362124307115
90238096 -0.0013058084917822762 0.005759599601067585
90267858 -0.001174434319483644 0.0057989939511093646
90297620 -0.0011651465290094646 0.005783397117057277
90327382 -0.0010867298089989803 0.005742284728889193
90357144 -0.001111982591838691 0.005697016097677241
90386906 -0.001033537150772079 0.005653449034238914
90416668 -0.0012144429622127594 0.0056053599437269844
90446430 -0.0010322217515151926 0.0055696086274611535
90476192 -0.0009581073704518906 0.005529703525234273
90505954 -0.0009323647638429985 0.005487162387057189
90535716 -0.0009555028802428404 0.005445450703149253
90565478 -0.0008807732773890623 0.0054259595832581815
90595240 -0.0008959389965611877 0.005438652913312989
90625002 -0.0008606274626972041 0.00545610695313059
90654764 -0.0007762439246076847 0.005473262152418277
90684526 -0.0008263723654105977 0.005492892960213916
90714288 -0.0007531465404815561 0.005501754896545343
90744050 -0.0007842947885120797 0.005519894904335167
90773812 -0.0006326014215941946 0.005531677196644352
90803574 -0.0006420278942532352 0.005544291702569534
90833336 -0.0005600424433137012 0.0055563537185693915
90863098 -0.0005352905764975401 0.005532245535507373
90892860 -0.0005593518926423829 0.0055126348168137
90922622 -0.0004894624550791565 0.005491580867820065
90952384 -0.00046776085619980545 0.0054666085169756354
90982146 -0.0004890002596844818 0.005445671510851675
91011908 -0.00042278768632940145 0.005422803906879611
91041670 -0.0004448484508843549 0.005403774690106971
91071432 -0.0005038673226004781 0.0053895385677822415
91101194 -0.0005254862641206359 0.0053595662634718585
91130956 -0.0003686803842063101 0.0053716109254984224
91160718 -0.0004424620686592484 0.0054030645746272485
91190480 -0.0004749435908010638 0.005435099725337055
91220242 -0.0006369007791287667 0.005464065947602386
91250004 -0.0005416765443440418 0.005496114493136703
91279766 -0.0007045577746581679 0.005526615938752209
91309528 -0.0005728045090970328 0.0055614421086070155
91339290 -0.0006512113970070235 0.00558829385721117
91369052 -0.0006471351345075912 0.005620220850184854
91398814 -0.0008395669020515527 0.005627120062864058
91428576 -0.0007096493716099101 0.005606659507731974
91458338 -0.0006656100789449122 0.005584067121967252
91488100 -0.0007019022635935299 0.005558583845860002
91517862 -0.0007017348996546346 0.005534280131014305
91547624 -0.000655596825887517 0.005511853776590481
91577386 -0.0006873278550808295 0.005489267847656228
91607148 -0.0006878634798933982 0.005464032266067682
91636910 -0.0006839007991934108 0.005442061895799255
91666672 -0.0006407353095873764 0.005417250790125555
91696434 -0.0006073468848417846 0.0054379623503990155
91726196 -0.0004986445249107519 0.005453545066107035
91755958 -0.00042636033799471883 0.005471751684535244
91785720 -0.0003895141077703733 0.0054866016500003025
91815482 -0.0002783958376096318 0.005500324675797513
91845244 -0.0002041847822745253 0.0055084927190150925
91875006 -0.00016376723245190047 0.005521722004429192
91904768 -0.00019409373691008363 0.00553072719308043
91934530 -1.2271979147143258e-05 0.005537187260121201
91964292 1.4638007696709241e-05 0.0055507960226628605
91994054 4.787753845551591e-05 0.005572288162587627
92023816 -9.22067228662516e-05 0.005601927305201029
92053578 1.207296799649538e-05 0.005623418022904239
92083340 9.772315945709288e-06 0.0056451725358896716
92113102 4.1499779657430586e-05 0.00566956046331337
92142864 6.990042024663842e-06 0.0056955247613436665
92172626 3.8560139885366274e-05 0.005719164134430121
92202388 -0.0001336078551950337 0.005751928599300471
92232150 -3.5685134531301595e-06 0.005740791639101112
92261912 -0.0001228730508394417 0.005692927009188075
92291674 -7.463827955487277e-06 0.005638083150106077
92321436 -5.849848502157085e-05 0.005587731547985825
92351198 -4.274427314436361e-05 0.005534910530645047
92380960 -8.967625132029713e-05 0.0054867921920697576
92410722 -0.00016866592752797527 0.005445375586849869
92440484 -8.51399029680673e-05 0.005389344307933901
92470246 -9.962559074336946e-05 0.005342577115680076
92500008 -0.00013981904574891752 0.005292535913265876
92529770 -0.00014785628876015191 0.005314319845745385
92559532 -0.00012341928175629518 0.005335704555801025
92589294 -0.00015613563579388478 0.005357799444918818
92619056 -0.00013529734819681151 0.005379644713312009
92648818 -0.00020518823524064077 0.005406939039892799
92678580 -0.0001750225814096987 0.005420709129323321
92708342 -0.00015354008006724542 0.0054447999384012475
92738104 -0.00015871135657005023 0.005464936413789145
92767866 -0.00019500786604466564 0.005485468483380298
92797628 -0.00014941711028796598 0.005503779599489747
92827390 -0.00014527961345284075 0.005516000181903493
92857152 -0.00011571829615502895 0.005526081213269453
92886914 -0.0001637993284992077 0.005535486543167631
92916676 -2.2584538351789945e-05 0.005552170776353745
92946438 -1.8922121898123983e-05 0.005560403770413362
92976200 1.3191402829407399e-05 0.005572447060432775
93005962 -0.00011256516158481998 0.005610135632278433
93035724 8.173839630145392e-05 0.0055926933022358806
93065486 5.738761825215375e-05 0.005603263801984886
93095248 0.00023959151261907606 0.005589150072450417
93125010 0.0002953882991885446 0.005586097480765964
93154772 0.00033830490854876963 0.0055973326898968
93184534 0.0003546911556698756 0.005579024968337306
93214296 0.0005433421924672307 0.005553469253272175
93244058 0.0004925409075150355 0.005562964914713407
93273820 0.0007080123847933536 0.005519563251001868
93303582 0.0007894797663758322 0.005499908626474449
93333344 0.0008939919660240341 0.005475639807513826
93363106 0.0008416131111091106 0.005488820076494515
93392868 0.0007671206868705896 0.005501537735844413
93422630 0.0007126974736502756 0.0055092702052056425
93452392 0.0006823872311073144 0.00551716721910369
93482154 0.0006065005935660795 0.005521654866734641
93511916 0.0005755206389989405 0.005523616693317975
93541678 0.0005224077049931455 0.005526336905879604
93571440 0.00047518657168168165 0.005512637793629944
93601202 0.00044739029457121 0.005489222340456555
93630964 0.00043524380284792663 0.005521983443046493
93660726 0.0004793842714112876 0.005515365340726876
93690488 0.0005581287625729086 0.005510257152559475
93720250 0.000597693270160878 0.00550305591930192
93750012 0.0006608528326824053 0.0054944699297471535
93779774 0.00073772354861483 0.0054863934297312905
93809536 0.0007267270299517163 0.005477079496661582
93839298 0.0008443243110380637 0.00546484589894494
93869060 0.0009093199684835631 0.005452350260324938
93898822 0.0009740433744885344 0.005435649523896067
93928584 0.0009758944568608565 0.005417481341479768
93958346 0.00101342860691283 0.005396087816901549
93988108 0.0009662449961225468 0.005378707973477852
94017870 0.0010380935236828216 0.005356165730320741
94047632 0.0010084315666926585 0.005337150761604813
94077394 0.0010940297442705302 0.005312512822448989
94107156 0.001100884786581258 0.00529238236562082
94136918 0.0011355188164155015 0.005271021406690725
94166680 0.001144564651384423 0.005248396609973472
94196442 0.0011678850371863274 0.00550998585792052
94226204 0.0011410732863808791 0.005799504780096342
94255966 0.001224946363481583 0.006120575401156101
94285728 0.001213767079545763 0.006478234352121089
94315490 0.0012121899271208606 0.006881759634037156
94345252 0.0012060570627895363 0.007338321839990797
94375014 0.0011462161203116944 0.007851769793741421
94404776 0.0010868805776278296 0.00844509348440673
94434538 0.0009601905208684614 0.009126038944234496
94464300 0.000983453015033776 0.008848173338008856
94494062 0.0011262413686241785 0.008155424630029407
94523824 0.001204146002958457 0.007543303404256453
94553586 0.001251718925379711 0.007006241035004023
94583348 0.0013043806774737168 0.006541192311331098
94613110 0.0013191445275458436 0.006127485290734988
94642872 0.0013323458608008143 0.005755215619958566
94672634 0.0013551113147268977 0.005421435806417764
94702396 0.0013600521768301372 0.005116349448806751
94732158 0.0013564668780035646 0.00491333288389321
94761920 0.0013812499258473005 0.0048538331131674295
94791682 0.0013763535693850561 0.004798706935830863
94821444 0.0014293587182683993 0.004738196248622574
94851206 0.001425850465645263 0.00468451322143932
94880968 0.0014862849912980816 0.004624076505915787
94910730 0.0014981833868477732 0.004567308105738116
94940492 0.0015292787827475873 0.004508655963434975
94970254 0.0015210081213184448 0.004452451162350499
95000016 0.0015664315527033237 0.004392428209177179
95029778 0.0015618628687727476 0.004398442431008258
95059540 0.0016023677293052455 0.004400798575861084
95089302 0.0016202935039547855 0.0044070063740112315
95119064 0.0016483955115106162 0.004408018097211397
95148826 0.0016379951877575347 0.004413318796484792
95178588 0.0016743914382759734 0.004413251350162314
95208350 0.0016957106175894952 0.004415136025477588
95238112 0.0017224558392869812 0.0044158603864562305
95267874 0.0017386405473810383 0.00441371044689715
95297636 0.0017709893507850364 0.004391965811978799
95327398 0.0017966731884693032 0.0043632315489677805
95357160 0.0018215062435371794 0.00433627032034882
95386922 0.0018607030764673388 0.004305399422993953
95416684 0.001889417805317783 0.004272018589771975
95446446 0.0019185138813699102 0.004239048439112532
95476208 0.001954909031195595 0.004202747893287129
95505970 0.001982116004627937 0.00416891905655782
95535732 0.002014197261099331 0.004131666095817253
95565494 0.0020597707342149174 0.004084219110526006
95595256 0.0021094532036401033 0.004037518536947366
95625018 0.0021636832298026383 0.00398211466354928
95654780 0.0022165240011275396 0.003925827472350817
95684542 0.0022706316207198704 0.0038689651408162313
95714304 0.0023161969665858734 0.0038091478380446585
95744066 0.0023709707982619856 0.003748589743375641
95773828 0.0024175827194035876 0.003686850103116164
95803590 0.002477347453022614 0.0036155432347357986
95833352 0.0025198682513377416 0.003547617626929487
95863114 0.002509741325665648 0.0034721766427339095
95892876 0.0025700320473088373 0.0033571250258251613
95922638 0.002548761925371996 0.003278205911148081
95952400 0.0025900222961468588 0.003170404202396371
95982162 0.0025877655620650075 0.0030841525961060436
96011924 0.0022819669416413555 0.003102253642705501
96041686 0.0026639611605632696 0.0028281572656313
96071448 0.0026375802848072685 0.002772751096187927
96101210 0.00261726822462886 0.0026965791875124406
96130972 0.00234102738084632 0.0027569108997434516
96160734 0.0026530964688059057 0.0025523473733024336
96190496 0.0026938719939929266 0.002461348441749991
96220258 0.002726862165858611 0.0023713253912083167
96250020 0.002700437238679708 0.002336195529698641
96279782 0.002709163607468838 0.002278108602529846
96309544 0.0027314321725793902 0.0021843077809766648
96339306 0.002770174531653029 0.00206646210493369
96369068 0.0027719115919533 0.0019949603970745283
96398830 0.0027808567079837766 0.0018863071361052617
96428592 0.0028106445498734746 0.0017846403028358984
96458354 0.002804030627094842 0.0017057666106461932
96488116 0.002984957211094635 0.0013342854350773881
96517878 0.0028222154430923474 0.0014746453963947997
96547640 0.0028293076825689615 0.0013568193381788111
96577402 0.0028283959808350517 0.0012179599113008863
96607164 0.0028160037254795476 0.0011211035880070535
96636926 0.002888832714328086 0.000714974658578256
96666688 0.002778460329913421 0.0008718137033944094
96696450 0.0027270833967808963 0.0007519059203029381
96726212 0.002681617237147308 0.000702645326076992
96755974 0.002545047128547883 0.0007519246536729428
96785736 0.002529398715099844 0.0004007926685576816
96815498 0.0024447164647583945 0.0005151921766410302
96845260 0.002378888521312023 0.00018068691360987563
96875022 0.0023021864236027444 6.877002820840628e-05
96904784 0.0022310273374339523 -4.6104859123359006e-05
96934546 0.0021300671824424243 -0.000169866166805708
96964308 0.002053672554953187 -0.00026225089785353865
96994070 0.001986259632638927 -0.0003633173641655211
97023832 0.0017234241436140537 -0.0006560561803559156
97053594 0.0018198478024596368 -0.0005772769147406381
97083356 0.0017498023470168243 -0.000670674808033663
97113118 0.0018482136156944926 -0.0006159924672775671
97142880 0.0015520078405000905 -0.0008807312707448905
97172642 0.0011751988422376057 -0.0010768683813235915
97202404 0.0013601151190667346 -0.0010789230005967486
97232166 0.0012372375315560778 -0.0011834476207374066
97261928 0.0011275833226746348 -0.0012760765153338439
97291690 0.0009921324564696116 -0.001378696940812039
97321452 0.0008672150690480083 -0.0014639632644060671
97351214 0.0007151492481664048 -0.0015546053697054428
97380976 0.0005869887802885246 -0.0016467689876437088
97410738 0.00042323018787831585 -0.0017140569723122772
97440500 0.00027907448649757853 -0.001783764395262406
97470262 -0.00031796194397584553 -0.001646015515857465
97500024 -4.7017982124165076e-05 -0.0018982226123800637
97529786 -0.00018844929973867587 -0.0019611407557757077
97559548 -0.0008075766645518471 -0.0016952624637366367
97589310 -0.0005490372467758132 -0.0020284603611428697
97619072 -0.0007694756294588691 -0.00203238813910571
97648834 -0.000866394653787696 -0.00210152098157254
97678596 -0.0010635857733688415 -0.0021080769043685874
97708358 -0.001645600911643921 -0.0016286311913043623
97738120 -0.0014114282723308449 -0.0021218664591237317
97767882 -0.0015976610454538152 -0.002109615208502257
97797644 -0.0013254386678549321 -0.0025655681658688493
97827406 -0.0019419868660119103 -0.001993533042517754
97857168 -0.002147983636264771 -0.0018774682066530302
97886930 -0.0023321781254623014 -0.0017705046529926573
97916692 -0.0021773579191428816 -0.0023088323640775743
97946454 -0.002637928475681699 -0.0015409171746178145
97976216 -0.002538080543811153 -0.002087991910185433
98005978 -0.0029979012259737405 -0.0005405782540850836
98035740 -0.0030391140275059098 -0.0011150828308574964
98065502 -0.0031527775770006615 -0.001068290834064792
98095264 -0.003262407860546986 -0.0010662986373004162
98125026 -0.0033735256324972395 -0.0010167607176150399
98154788 -0.0034805893177303473 -0.0002323442581534264
98184550 -0.0036093278823237877 -0.0010090192984338363
98214312 -0.0037195506769440246 -0.0010013617220038446
98244074 -0.0037791649854927866 -0.00017419473361710992
98273836 -0.003938063403020553 -0.0010483014114332032
98303598 -0.0040566887434689124 -0.0010155210551889742
98333360 -0.004164588988687647 -0.000998578646103437
98363122 -0.004221585541732292 -0.0009879577717600602
98392884 -0.004293220123326078 -0.0008547231149293825
98422646 -0.004350291175961056 -0.000841748523666242
98452408 -0.00439121134630393 -0.0007628728305024818
98482170 -0.0044417471208849325 -0.0006395295816461497
98511932 -0.004499737798266232 -0.0006159255850158193
98541694 -0.004304173620958338 0.00036707617043763843
98571456 -0.0045630808319391345 -0.0004262380805584602
98601218 -0.0047357349118607815 -0.0012737042913620487
98630980 -0.004644617389187292 -0.0002750286956868618
98660742 -0.004690852244310522 -0.00015310013697255337
98690504 -0.004399469420551188 0.0008117934740674884
98720266 -0.005019449297763144 -0.0007830139814619129
98750028 -0.004808548608062358 0.00020862940627305065
98779790 -0.004844517291253714 0.00032564836492833364
98809552 -0.004889374502583616 0.0003943384454712179
98839314 -0.00488493163372159 0.0005564071354271634
98869076 -0.004934603725353868 0.0006286783873201731
98898838 -0.0053014174979628586 -4.39892255302749e-05
98928600 -0.004965337591927405 0.0008416377382011917
98958362 -0.0054038184826340875 8.751084008059119e-05
98988124 -0.005061912899242185 0.0009366166846208956
99017886 -0.005092181915903179 0.0009964338125511983
99047648 -0.005144476574563773 0.0009951962606530558
99077410 -0.005156595948481976 0.0010905611918848492
99107172 -0.00519152115721729 0.0011589829538456475
99136934 -0.00534586790336174 0.001083735917640856
99166696 -0.005304574434513539 0.001214824970945262
99196458 -0.005230847021794194 0.0013567516466017576
99226220 -0.005286759375391597 0.001342796506699152
99255982 -0.005336049420970235 0.0013151333356074752
99285744 -0.005282140085753391 0.0014312939025707377
99315506 -0.005417928263402718 0.0013279744240870357
99345268 -0.005365656136805004 0.0014092993934717738
99375030 -0.0053285507357172706 0.0014959088698577225
99404792 -0.005374019894820459 0.0014559029545050662
99434554 -0.005357613879716693 0.0015221420965129053
99464316 -0.0053831900854841965 0.0016098964845149165
99494078 -0.005385889543858544 0.0017010432192214372
99523840 -0.005248651242831425 0.001938584818845501
99553602 -0.005198519863098192 0.0020710203516338564
99583364 -0.005712174408912482 0.0015893475204430505
99613126 -0.004485649689096271 0.002871703988594003
99642888 -0.005054577999368493 0.002447966781744448
99672650 -0.004997656615108299 0.0025691449425080263
99702412 -0.005510381145366618 0.0021669737354814314
99732174 -0.004902487989081334 0.0027548820328421124
99761936 -0.004782664998221594 0.0028715397765273747
99791698 -0.00505353970724622 0.0026736906775162556
99821460 -0.005040170459766462 0.002702612554903656
99851222 -0.005145496663913336 0.0026364583693935274
99880984 -0.005719296489452658 0.0021298077894022337
99910746 -0.005167450735805917 0.002637905897766171
99940508 -0.005802017276519709 0.002066706351666746
99970270 -0.005239820835977148 0.002585626378440379
100000032 -0.005290181881100865 0.0025712755347206137
100029794 -0.005277455750086617 0.0026123718443403355
100059556 -0.005268923267200873 0.002656265233448905
100089318 -0.005272725739757536 0.002698904210871188
100119080 -0.005268178004633419 0.0027446621171264623
100148842 -0.005260571493313889 0.002790847230998976
100178604 -0.0052575434246868325 0.002836578200641995
100208366 -0.00525057891990085 0.0028829128599247517
100238128 -0.00524849849759501 0.002921976220016127
100267890 -0.0052410567749723485 0.002972463947529414
100297652 -0.0052368822327337585 0.003009765621850393
100327414 -0.005250642298342062 0.003041792456333327
100357176 -0.005258308529190603 0.0030719312823152653
100386938 -0.005259823337081577 0.00309837398759202
100416700 -0.005266826849728657 0.0031321009159662578
100446462 -0.0052692335433508625 0.003155379964725408
100476224 -0.005279602280624495 0.003195092267118418
100505986 -0.005278092878714019 0.0032237177838487685
100535748 -0.005279594926902451 0.0032524621026629305
100565510 -0.005307314996605554 0.0032867308785404096
100595272 -0.005361434811730629 0.003329958226731071
100625034 -0.005413271155766942 0.0033803939691092947
100654796 -0.005471605387904227 0.0034282265946298587
100684558 -0.005522266646300212 0.003470245233041922
100714320 -0.005585671241886785 0.003520739333023379
100744082 -0.005651193448579909 0.0035683698896864895
100773844 -0.005708377497277971 0.003609336590201969
100803606 -0.005765124841435716 0.0036648100961647755
100833368 -0.005832189000521738 0.0037044263489539805
100863130 -0.0057853825970967535 0.0037416121582727886
100892892 -0.005723321351999487 0.003771927229478902
100922654 -0.005677303019117863 0.003799124382319872
100952416 -0.005629219091288967 0.0038373672917717833
100982178 -0.005578316509558967 0.0038669241793709754
101011940 -0.005521624287454746 0.0038967780639112795
101041702 -0.005468131655082793 0.003920877913846679
101071464 -0.005419439644472296 0.003945205897019018
101101226 -0.005371334830272932 0.0039723728463665385
101130988 -0.005359408384333978 0.003996526405390646
101160750 -0.005350051268833271 0.004016397297890615
101190512 -0.005354025837941213 0.004032158845917657
101220274 -0.005353836317449137 0.004045324234096895
101250036 -0.005349956613690286 0.004067864794950879
101279798 -0.005346652269814726 0.004075480439164584
101309560 -0.005354182233872967 0.0040877067714643785
101339322 -0.0053539356173505255 0.004109715235886164
101369084 -0.005350388318238332 0.004122437300040186
101398846 -0.005333556306196238 0.0041640634423342265
101428608 -0.005280871622522855 0.004255067300990877
101458370 -0.005236413532992677 0.00435144290237177
101488132 -0.005190544237636022 0.004438735547996075
101517894 -0.005130690753135384 0.004534971634771831
101547656 -0.005085213445219858 0.004619900937721828
101577418 -0.005019304063365429 0.004707324006709772
101607180 -0.004960767205324948 0.004799124253025245
101636942 -0.004900833360825384 0.004881675731849596
101666704 -0.004834842771368207 0.0049650963673880544
101696466 -0.004917851854817381 0.004921114923283672
101726228 -0.004989515885545499 0.00486726280306323
101755990 -0.005051087086089553 0.004813318002655177
101785752 -0.005126802493431007 0.004757722261200271
101815514 -0.005196046744776458 0.004693888862246143
101845276 -0.005256399734329713 0.004627439267418531
101875038 -0.005319771110597012 0.004560045231387213
101904800 -0.00537898956626995 0.004491459801259166
101934562 -0.005435118353147864 0.004422004873550995
101964324 -0.005404431349962232 0.004447050076125785
101994086 -0.005316824306729103 0.0045275391062114265
102023848 -0.005229761196234544 0.00461952097736379
102053610 -0.005153072795247614 0.004691121260401328
102083372 -0.0050611882692786865 0.004767646958722623
102113134 -0.0049824465727472305 0.004840835457053118
102142896 -0.004889036516346913 0.004908002442464772
102172658 -0.004800505040196505 0.004968382341406989
102202420 -0.0047112624773415655 0.0050285505845618335
102232182 -0.004677991497352257 0.00507763918526279
102261944 -0.0047578090757185755 0.005102855787972691
102291706 -0.004838585475231831 0.005124337256409475
102321468 -0.004931357542528983 0.005148971138875717
102351230 -0.005016904703249509 0.005171623026172242
102380992 -0.005115495765712553 0.005181554415153534
102410754 -0.005208152850897366 0.005203228730734517
102440516 -0.005306011445857254 0.005212795000269661
102470278 -0.005402987684035173 0.005222804498071458
102500040 -0.005496371613141318 0.005232317744080851
102529802 -0.005442212186879952 0.0052674543743662355
102559564 -0.005374978148157994 0.005308319269567858
102589326 -0.0053189069967790915 0.0053386627028800225
102619088 -0.00526061608608253 0.005374254267358422
102648850 -0.005195617209724359 0.005411626260223667
102678612 -0.005125901467283527 0.005444490257532198
102708374 -0.005065974467980751 0.005476588222583598
102738136 -0.005002140473834097 0.0055103038014595596
102767898 -0.004949332751344303 0.0055380470863933984
102797660 -0.004906578783455102 0.0055287929038075724
102827422 -0.004886135978724159 0.00551591069075315
102857184 -0.004857088812780082 0.005498663086673014
102886946 -0.004837549108941068 0.005472097065526412
102916708 -0.004808191880930481 0.005456503922385832
102946470 -0.004781546367688097 0.005445348833262245
102976232 -0.004762615167042326 0.00541386228122147
103005994 -0.004738546574467171 0.005403566808919489
103035756 -0.004714315476508267 0.00538177546896825
103065518 -0.00470077663660116 0.005375200673204281
103095280 -0.004694384338108524 0.0054124774585704435
103125042 -0.004699896197347101 0.005444087289605279
103154804 -0.004697038507991472 0.005479488282260259
103184566 -0.004691653422034869 0.005506995064637172
103214328 -0.004691367632546976 0.00554578296632298
103244090 -0.004687301572783622 0.005581464830342878
103273852 -0.004688477882263668 0.00561151814070776
103303614 -0.0046916032754351815 0.005650435938466939
103333376 -0.0046991792779605785 0.005677483309521073
103363138 -0.004584979060866513 0.005693851396244359
103392900 -0.004503321353873542 0.005698910469048364
103422662 -0.004392037415515511 0.005715110408181521
103452424 -0.004299081107015423 0.005716088651736883
103482186 -0.004205785274010566 0.0057212260336342285
103511948 -0.004110478436633205 0.005723549164168385
103541710 -0.004020997080370368 0.005730890912877504
103571472 -0.003932812312035008 0.005730718913785388
103601234 -0.0038434958988989502 0.005727835575877387
103630996 -0.0038408918339635878 0.005719191482583086
103660758 -0.0038809169161682045 0.005717116969908705
103690520 -0.003921720739472453 0.005710988167450425
103720282 -0.003958835307522131 0.005702058220644788
103750044 -0.004004544558922203 0.005690240824054675
103779806 -0.00404285001079185 0.005685296842979201
103809568 -0.004084897351572744 0.005673886371434118
103839330 -0.004125541970356929 0.0056582223255021375
103869092 -0.004169872095733796 0.005644838454667341
103898854 -0.004206987320970938 0.005643662656514732
103928616 -0.0042395378946767336 0.005669672191338067
103958378 -0.004284416656340459 0.005689147897481385
103988140 -0.004319294722175705 0.005709342324075762
104017902 -0.0043551910422243555 0.0057329349844136785
104047664 -0.004392156333679025 0.005756398385092353
104077426 -0.004430698803860012 0.005778831858205855
104107188 -0.004473572163065263 0.00580211562822403
104136950 -0.004517256396441285 0.005821890995988906
104166712 -0.004557407268886637 0.005842438526793921
104196474 -0.0045397810570769965 0.005888077645543353
104226236 -0.004528277573229128 0.005936332386135526
104255998 -0.004515844069667681 0.005987389579238257
104285760 -0.0045029929335490965 0.006036483119046131
104315522 -0.004488457139703922 0.006084116360241251
104345284 -0.004469177120960038 0.006135369011828411
104375046 -0.004454335769110296 0.006181758503725277
104404808 -0.004438772001380902 0.006234322192123989
104434570 -0.0044176479507871385 0.006285876504857871
104464332 -0.004403312387232701 0.006265118730398886
104494094 -0.0043838646757688345 0.006208714270481709
104523856 -0.004371188390406685 0.006154750297968101
104553618 -0.004383466187060447 0.006099463908428584
104583380 -0.004328028793538737 0.006044041356210433
104613142 -0.004311933183397515 0.005989085595081086
104642904 -0.004298550835062465 0.005934030574347257
104672666 -0.004284155927459811 0.005887309299490426
104702428 -0.004265766987841279 0.005833670354009364
104732190 -0.00424159632748769 0.005822276810209453
104761952 -0.0042176942920031735 0.005897935856392582
104791714 -0.004204579088767569 0.0059752390805252915
104821476 -0.004185667525553483 0.006051667668117175
104851238 -0.004164395293660631 0.006127344653417979
104881000 -0.0041419363477585335 0.006200245745906917
104910762 -0.004117571686476553 0.0062867205002652225
104940524 -0.004093029656197912 0.006360640292182717
104970286 -0.004068848758387807 0.006440786326343297
105000048 -0.0040358396380676155 0.006525599397377613
