# HZ S RI R 50
90000000 -0.0008896080242105353 0.005498333293101491
90029762 -0.0008642217268199647 0.0055360739128673935
90059524 -0.0011075040294608912 0.005559465292690241
90089286 -0.000971549421482042 0.005600814501522886
90119048 -0.0011643976433865111 0.005622883944507501
90148810 -0.0010333144047700168 0.005666204637277083
90178572 -0.0010793474626299721 0.005696824046207205
90208334 -0.0010382258327335532 0.005734340221885874
90238096 -0.0012899559612142705 0.005757709704369813
90267858 -0.0011585794702029836 0.005798227037705811
90297620 -0.0011513895799618952 0.005777811424170639
90327382 -0.0010911101851831019 0.005738686504825881
90357144 -0.0010963759581488043 0.005693789543846528
90386906 -0.0010154116158643412 0.005649333870425989
90416668 -0.001199329273704338 0.0055993708875461375
90446430 -0.0010172852313383458 0.005563162419143679
90476192 -0.0009587357963722038 0.005525287279057324
90505954 -0.0009175826951208807 0.005482513604933752
90535716 -0.0009407664099038316 0.0054397743295067
90565478 -0.0008664116965780718 0.005421762863358222
90595240 -0.0008782255262478203 0.005436697172917579
90625002 -0.0008429702711632534 0.0054518521808470215
90654764 -0.0007615635063318968 0.0054669710611522345
90684526 -0.0007254067372003168 0.005483377623471288
90714288 -0.0007364523428175776 0.005495341654772086
90744050 -0.0007858289813475022 0.005516685836726975
90773812 -0.0006166245467610917 0.005522473394979724
90803574 -0.0006257134984837322 0.005538569217936279
90833336 -0.0005439056384632983 0.005548923253965436
90863098 -0.0005190754671802317 0.005530055174006511
90892860 -0.0005393889533175463 0.005509008995361358
90922622 -0.0004743857491665519 0.0054806654891702425
90952384 -0.000451283362456543 0.005463570768982019
90982146 -0.00047184989398908045 0.005439236396768367
91011908 -0.0004055842655714686 0.005415744294179536
91041670 -0.00042902946027745714 0.005396646986237601
91071432 -0.00040510256683875894 0.005375090528504926
91101194 -0.0005093900749767921 0.005352944382515312
91130956 -0.0003530694860803283 0.005363942207957224
91160718 -0.0004270950180228621 0.005397132824388338
91190480 -0.0004566839616090935 0.005428267512898444
91220242 -0.0006168305540889195 0.005457817757745151
91250004 -0.0005243134067857443 0.00548765026627357
91279766 -0.0006862865466152517 0.005518926048625529
91309528 -0.0005544061268582567 0.005551324802810038
91339290 -0.0006308677003050831 0.005581839770333059
91369052 -0.0006445924696310712 0.005613990425770235
91398814 -0.0008173110811884978 0.00561776559719214
91428576 -0.0006913594891293149 0.005598615087046292
91458338 -0.0006473035611669124 0.005576555808097021
91488100 -0.0006838339853313242 0.005551801939741252
91517862 -0.0006788900135688959 0.005526406645236674
91547624 -0.0006376325571848122 0.005504465465226664
91577386 -0.0006349693227767345 0.005478978655685017
91607148 -0.0006686763098101959 0.005454100843736677
91636910 -0.0006618208791671302 0.00543099777415835
91666672 -0.0006206942655872119 0.005411747719629687
91696434 -0.0005886531151358173 0.005428820370146076
91726196 -0.00047871464945941803 0.0054466557279784665
91755958 -0.0004894232973673625 0.005471177269977196
91785720 -0.00036883268092349547 0.0054760892586306325
91815482 -0.0002563576798326908 0.005488590151326983
91845244 -0.00018259036482254167 0.005500925924892523
91875006 -0.00014273829661866325 0.005510903444101495
91904768 -0.00017363650388064239 0.005521568808662039
91934530 1.0155158466087549e-05 0.0055231686342628854
91964292 3.6749081035026335e-05 0.005536590548945067
91994054 7.05526382334318e-05 0.005560747373037725
92023816 -6.9589485842549e-05 0.005591644573223842
92053578 3.291000381267032e-05 0.005609766234829499
92083340 3.393904235427747e-05 0.0056348555394557616
92113102 6.427901269556744e-05 0.005658726356016731
92142864 2.8992018522786186e-05 0.0056822357111673775
92172626 6.270751348683094e-05 0.005707026637446414
92202388 -7.472954064270851e-05 0.005733265057693677
92232150 2.1192295985184275e-05 0.00573124091441051
92261912 -9.853918646223165e-05 0.005682605169100313
92291674 -3.326270275439259e-05 0.005630630099099218
92321436 -3.3149874242623977e-05 0.005576901996849405
92351198 -1.8472794952408793e-05 0.005525288589156418
92380960 -6.254023193311214e-05 0.0054756745176104855
92410722 -7.742876443641412e-05 0.005427049857066822
92440484 -6.258796942311602e-05 0.005378944145882248
92470246 -7.367031980035431e-05 0.005327920150499105
92500008 -0.0001155680571536105 0.005282337713373397
92529770 -0.00011985210334342865 0.005303104714939638
92559532 -9.849503186712626e-05 0.005324800920498992
92589294 -0.00013032468235945436 0.0053447529431001955
92619056 -0.00010873839329074082 0.005366733783214087
92648818 -0.00011490309947037541 0.00538961129408882
92678580 -0.00014850878167017541 0.00540674321758236
92708342 -0.00012601085383686305 0.005430897242280235
92738104 -0.00013192330692609147 0.005456287712698403
92767866 -0.0001654355010586757 0.0054744063930599746
92797628 -0.0001203378985743848 0.0054894819989745255
92827390 -0.0001162878967444031 0.005499355312642744
92857152 -8.528191702165601e-05 0.005512578811038209
92886914 -0.00013346978858442475 0.005521328442486308
92916676 6.743825713924502e-06 0.005535836872285852
92946438 1.1484584228133725e-05 0.005546909641241334
92976200 4.658844877007521e-05 0.005556151419729293
93005962 -2.6518397314150893e-07 0.005563194187575472
93035724 0.0001140183922984254 0.005575138875838631
93065486 8.497518254495495e-05 0.00558209011177378
93095248 0.00027128071152639183 0.005573943906447982
93125010 0.00033064327396166974 0.005567035314225368
93154772 0.0004357956606839889 0.005429107022901435
93184534 0.00041973948037066314 0.0055473364931528935
93214296 0.0005434862559967763 0.005540747983387579
93244058 0.0005861988834023888 0.0055165942098523565
93273820 0.0007710338961751478 0.005483531615449985
93303582 0.0007952565109980495 0.005496131137258257
93333344 0.000957803011864343 0.0054429229729772806
93363106 0.0009057629133428896 0.005452757284849281
93392868 0.0007972790431693624 0.005476259624622203
93422630 0.0007470477290722852 0.005486631267765193
93452392 0.0007153313168570505 0.005490174352560592
93482154 0.0006915272991200732 0.005484823426950081
93511916 0.0006110439385594415 0.0055020428546274265
93541678 0.0005582741689941718 0.005501323454101863
93571440 0.00048362434002499947 0.005502283576382214
93601202 0.0004515289387434779 0.005501381041247173
93630964 0.00042268721019551907 0.0055078794850858355
93660726 0.0005291725180351947 0.00548268720398463
93690488 0.0005963023242745385 0.005484154381271184
93720250 0.0006389579559864271 0.005475671184860179
93750012 0.0006987450338950646 0.005471364309411872
93779774 0.0007815016388878167 0.005460358507269133
93809536 0.000769065294173185 0.005448069757018588
93839298 0.0008862458741658982 0.005433616950039923
93869060 0.0009482076284459344 0.005419024006186503
93898822 0.0010141877584514977 0.005407166312722596
93928584 0.00101657756979417 0.0053823066422511775
93958346 0.0010556995579740756 0.005364643843986729
93988108 0.0010078094204031226 0.0053454893015696895
94017870 0.0010782835264411858 0.005322292681589479
94047632 0.0010511821024091444 0.005300736741831695
94077394 0.001138337477804081 0.005278028764297145
94107156 0.0011439171158299404 0.00525703551572381
94136918 0.0011810082296954876 0.005233383990098356
94166680 0.0011861952086170073 0.005211505030520619
94196442 0.0012168199008479306 0.005470813682476677
94226204 0.0011950059589025438 0.005755160716090897
94255966 0.0012773708100496453 0.006074933381923955
94285728 0.0012747477656143706 0.006430724262542649
94315490 0.0012734908929537862 0.00683062583224735
94345252 0.001278570425112479 0.007282554636255742
94375014 0.0012192042170317456 0.007795718012533579
94404776 0.0011708755848272975 0.008384642093990303
94434538 0.0010507009907917678 0.009062349994420174
94464300 0.0010727126448617165 0.008777072221336989
94494062 0.0012085194126787565 0.008087612117753678
94523824 0.0012884009560071548 0.007479575765043426
94553586 0.0013219782037247752 0.00694715130944831
94583348 0.0013772085262939286 0.00648032463831653
94613110 0.0013813179055559234 0.006068587888993429
94642872 0.0013977341204813051 0.005695067299744496
94672634 0.001414058962485124 0.005366566883145444
94702396 0.0014167491482044105 0.005064130115372469
94732158 0.0014091697431388816 0.004857853998847802
94761920 0.0014357777803765328 0.004798968785389285
94791682 0.0014318229531271463 0.00474106421782671
94821444 0.001485417670747658 0.004681745447214258
94851206 0.001479410634387261 0.004624703394676729
94880968 0.001539756866100036 0.0045629815230801216
94910730 0.0015542042654195735 0.0045048274067604616
94940492 0.0015859119440622908 0.00444558086001143
94970254 0.001574744159262541 0.004390860690336921
95000016 0.0016247115736323784 0.004328792059344629
95029778 0.0016178864689145491 0.004330933308181808
95059540 0.0016606068539792398 0.004333385199921451
95089302 0.0016791634865360712 0.004336468705226478
95119064 0.0017062899378587604 0.004336653425256406
95148826 0.0016982146613003912 0.004338513660708136
95178588 0.0017367797883933187 0.004336995750341924
95208350 0.001758040094647673 0.004334869658004176
95238112 0.001783940221952233 0.004330587841275739
95267874 0.001802148686713858 0.0043279740204561394
95297636 0.0018319316078684094 0.00430615517650392
95327398 0.0018613979767062565 0.004275427504678804
95357160 0.0018907944689526444 0.004242284540560258
95386922 0.0019275548376509897 0.004211074537191348
95416684 0.001957640564782508 0.0041779328204971725
95446446 0.0019860665459101043 0.00414202073735428
95476208 0.0020235105629687646 0.0041037236559189035
95505970 0.0020501815258656512 0.004064759925731249
95535732 0.002077886512661286 0.004023307419221898
95565494 0.0021247354347209506 0.003974343167207005
95595256 0.0021782392555665386 0.0039231601178332355
95625018 0.0022293252480887404 0.0038633401173842857
95654780 0.002285446786200581 0.0038029874113009146
95684542 0.0023382452252263502 0.003742558756161495
95714304 0.002386529919766943 0.003679126428741104
95744066 0.0024388771087657506 0.0036118654036672243
95773828 0.0024845635950674324 0.00354423372292699
95803590 0.0025389348049253825 0.0034742467056374823
95833352 0.0025798689235248962 0.0034007312716126956
95863114 0.0025976101953864017 0.0033017720181781596
95892876 0.0026087837558737424 0.0032080790194619693
95922638 0.002617623288644014 0.003111709462328418
95952400 0.002630202795251868 0.0030145886208127644
95982162 0.00263583324869896 0.002916055165068006
96011924 0.0023363706127356152 0.002938494570234222
96041686 0.0026489018414589493 0.0027022431076624267
96071448 0.002593636331823913 0.0025438114712162474
96101210 0.0026460519037727484 0.002511359628080222
96130972 0.002365709693521173 0.0025983386181390737
96160734 0.002655369048958942 0.0023781555462228194
96190496 0.0027567337992561018 0.0022231881380297713
96220258 0.0027062576348876872 0.0022050334632509783
96250020 0.0027115373499962646 0.002143068336798359
96279782 0.0027396747079817775 0.0020338990511776754
96309544 0.0027479029237022392 0.0019500841569400898
96339306 0.0027644157189575577 0.0018435413636674037
96369068 0.002770543942772819 0.0017447274769584386
96398830 0.0027775756577961734 0.0016401432738271863
96428592 0.002784344103508318 0.001540676197728536
96458354 0.0027768595543782113 0.0014444409638096282
96488116 0.0029182997280822053 0.0010628790851189794
96517878 0.00279059430955236 0.001161751562234803
96547640 0.0027660746875286736 0.0010829883336987871
96577402 0.0027524952128180217 0.0009708488834461862
96607164 0.0027324415099858053 0.0008333317576025168
96636926 0.0027515656224221642 0.00042609477459346865
96666688 0.0026875669893230134 0.0005764413087674173
96696450 0.0026106549646402123 0.0004579107144026805
96726212 0.002546353391905358 0.00033853626381439585
96755974 0.002459545488958852 0.0004623184993529015
96785736 0.0023814554669521143 0.0001152985614113582
96815498 0.0023513532101599897 0.0002084754045315419
96845260 0.0022238890102578455 -0.00011162040355879336
96875022 0.002134450991451666 -0.00022637008413595758
96904784 0.0020466678314437986 -0.0003336065084093496
96934546 0.001938591732903156 -0.0004477371656489591
96964308 0.0018647698636409023 -0.0005430536653566128
96994070 0.0017656436795713383 -0.0006310432855387196
97023832 0.0014440810462539727 -0.0008831810372798788
97053594 0.0015941733591601232 -0.0008390521233543102
97083356 0.0014890762067544798 -0.0009319268818322166
97113118 0.0016443479233276877 -0.0009135034334338214
97142880 0.0012763255679446675 -0.001130070625902843
97172642 0.0008391242265084423 -0.0012658774118388008
97202404 0.0010653065563374531 -0.0013143348719446492
97232166 0.0009394302676880616 -0.0013998309626754885
97261928 0.0008205994930737142 -0.0014936336899909724
97291690 0.0006725910580592058 -0.0015891654044543114
97321452 0.0005155743088097186 -0.0016706247068922963
97351214 0.0003762118167355058 -0.0017451208796525506
97380976 0.00022781188557448786 -0.001808912267876985
97410738 5.579846480896655e-05 -0.0018606027597403195
97440500 -9.945527098480345e-05 -0.001925475859901464
97470262 -0.0007063437835781388 -0.0016777662027598955
97500024 -0.00043006910249776206 -0.002013842331560006
97529786 -0.0005878707709721218 -0.0020626508525277954
97559548 -0.0011969362632278525 -0.0016904009062252384
97589310 -0.0009502259601859948 -0.0020809564694359516
97619072 -0.0011602665577542506 -0.002055679397879022
97648834 -0.0012765422087095979 -0.002134472061270362
97678596 -0.001475196971815969 -0.002115456652377911
97708358 -0.002006364491845795 -0.0015412782107000179
97738120 -0.0018017671373531995 -0.002099865213148809
97767882 -0.0019903941379059904 -0.0020703025268651995
97797644 -0.0017529593263245552 -0.002601212132063006
97827406 -0.0023423339265653082 -0.0019228627813513736
97857168 -0.002517766394926882 -0.0017869270541687773
97886930 -0.0026931972510457754 -0.001652538575666309
97916692 -0.0025729586575165614 -0.0022423069251435133
97946454 -0.002980188947790385 -0.0013837817173380082
97976216 -0.0029162982647012296 -0.001997359913180809
98005978 -0.003252586370639083 -0.0003534233420016816
98035740 -0.003325349539682608 -0.0009608725738992149
98065502 -0.0034296730319118896 -0.0008900162628785087
98095264 -0.003540328603196981 -0.0008781137592957795
98125026 -0.0036677605093448458 -0.0008323239662104128
98154788 -0.0036999919682802096 -1.9972606190811924e-05
98184550 -0.003896383361123252 -0.0008080723889262779
98214312 -0.003996696293265302 -0.0008084743052349742
98244074 -0.003989011951361521 5.0799390699599185e-05
98273836 -0.00422855731621196 -0.0008512388815018263
98303598 -0.004334980325258986 -0.0008159327626618797
98333360 -0.004440070001167721 -0.0008093892357365797
98363122 -0.004498595840772203 -0.0007836148490171823
98392884 -0.00453325447665994 -0.0006586972341327628
98422646 -0.004600795707877248 -0.0006264090669778434
98452408 -0.004652843072770277 -0.0005623186720527302
98482170 -0.004686429535860224 -0.00043123612372901796
98511932 -0.004733772385541204 -0.0004091358181343223
98541694 -0.004463319420949493 0.0005795648042392925
98571456 -0.004791403537581857 -0.00022356288444203297
98601218 -0.005020503321969566 -0.0010734203904412512
98630980 -0.004853210292368334 -4.854981928266258e-05
98660742 -0.004883811043487399 7.853380020987772e-05
98690504 -0.004554600939073666 0.0010152891961050362
98720266 -0.005252416391595685 -0.0005584913043744613
98750028 -0.004980764081302846 0.00044105498089566127
98779790 -0.005004542605977083 0.000556724783331959
98809552 -0.005049487369880148 0.0006259991875766313
98839314 -0.005036902897667679 0.0007961165475743535
98869076 -0.005079680165632057 0.0008586582369347448
98898838 -0.005504092083493992 0.0002072473218171701
98928600 -0.005103648099532085 0.0010729127185595743
98958362 -0.005589812625711321 0.00033858548706005876
98988124 -0.005215596852738711 0.001150880670387185
99017886 -0.005282909163518093 0.001187331594069415
99047648 -0.005340796743672431 0.0011874635600151466
99077410 -0.00534409159329596 0.0013024753857612205
99107172 -0.0053734624195821 0.0013675129606214773
99136934 -0.005479600375607151 0.0013396743214465412
99166696 -0.005522033974207492 0.00141205145866115
99196458 -0.005443747095176923 0.0015196546381950708
99226220 -0.005465108811407022 0.0015475607256292836
99255982 -0.005530107925486855 0.0015071645294517481
99285744 -0.005392967609467097 0.0016728530194255041
99315506 -0.005599967138799985 0.0015284330419966104
99345268 -0.005513349941004995 0.0016424379749379317
99375030 -0.005467428806068011 0.0017206947613005
99404792 -0.005541886947313511 0.0016711507529673045
99434554 -0.005511025506969482 0.001725984165090077
99464316 -0.005451133731191196 0.0018873050610769037
99494078 -0.005439235437607443 0.0019776774191774746
99523840 -0.005349078165573768 0.002174331031079181
99553602 -0.005384099414141247 0.002265524903699448
99583364 -0.005825759014825256 0.0018573422689284625
99613126 -0.00452230940025972 0.0030739355063464824
99642888 -0.005013027982469178 0.0027222677297998373
99672650 -0.005042589329396208 0.0028036011766899007
99702412 -0.005579675761817245 0.002423583694734353
99732174 -0.004938785251256282 0.0029893128934753155
99761936 -0.0048110931997413005 0.0030908124399512105
99791698 -0.005080398434378787 0.0029100465664371362
99821460 -0.005060543766484233 0.0029311391065884587
99851222 -0.005159219327723316 0.0028614774591540133
99880984 -0.005756569085368607 0.0023873685963964014
99910746 -0.0051797576709700106 0.0028760675815038927
99940508 -0.005835144909894268 0.002345291963131747
99970270 -0.0052427926029152295 0.0028230873827981826
100000032 -0.005286414851614115 0.0028099511986557717
100029794 -0.005269978626496561 0.0028508625629714195
100059556 -0.0052631424292589385 0.0028910912523086706
100089318 -0.00524567069187912 0.002933159600568777
100119080 -0.005235693894400194 0.0029756271905483104
100148842 -0.005232701588973865 0.0030181310947630584
100178604 -0.005222203333111688 0.003064750062974098
100208366 -0.0052136197367969725 0.0030995535438154732
100238128 -0.005197710124163815 0.0031505219968148116
100267890 -0.005183820098329276 0.0031821031821750246
100297652 -0.005179303935969556 0.0032161269465482726
100327414 -0.0051871329367882 0.0032528166838919803
100357176 -0.005186131295528148 0.0032759600027973818
100386938 -0.005183045160332617 0.0033041902324443123
100416700 -0.005194962707392021 0.0033273147914672217
100446462 -0.005195381442426889 0.0033628270539452615
100476224 -0.005198758813838046 0.003384530262370378
100505986 -0.0051971543437936895 0.0034089157312379497
100535748 -0.005198200696191458 0.0034369569965478227
100565510 -0.005212963007497101 0.003473608354438763
100595272 -0.005262378275416329 0.003511559072533883
100625034 -0.005316996148564087 0.0035602283554030025
100654796 -0.0053656298164146314 0.0036006550040676515
100684558 -0.0054271537467745715 0.0036532672030885074
100714320 -0.005487505045359406 0.003687858894882884
100744082 -0.005535640901395021 0.0037352352255140943
100773844 -0.005598184318292995 0.00378385456250363
100803606 -0.005652041783443018 0.0038204929135725097
100833368 -0.005714229127502028 0.003873267016186657
100863130 -0.005660865071402611 0.0038942979055746657
100892892 -0.005607674294075216 0.0039181633372230825
100922654 -0.005548381037747564 0.003948028615130028
100952416 -0.005502564458769161 0.003968212304401998
100982178 -0.005447499209946555 0.003995223461724179
101011940 -0.0053981128620372385 0.004023634090894604
101041702 -0.005347438570183017 0.0040423194124001105
101071464 -0.005291929128421959 0.004067394224664688
101101226 -0.005242287734542169 0.004082119497601554
101130988 -0.005221529264432119 0.004100962224935774
101160750 -0.005219806410572213 0.004106036816005336
101190512 -0.005216931604125966 0.00412147525522092
101220274 -0.005222056905065452 0.004131531660930194
101250036 -0.0052168666561362535 0.004134815239871767
101279798 -0.005219871824099244 0.00415130301330523
101309560 -0.005218617250884717 0.004167648470305224
101339322 -0.005218338002739189 0.004178336874723143
101369084 -0.0052183872403819866 0.004182909726576449
101398846 -0.005200382849425277 0.004224595271506911
101428608 -0.005154218379520701 0.004303145543768318
101458370 -0.005102691912467263 0.004403879621367008
101488132 -0.005060922467259137 0.0044787564122983035
101517894 -0.0050101469238272274 0.004568375433701534
101547656 -0.004949659203456456 0.004658318722644075
101577418 -0.004898905612081907 0.0047346117431367055
101607180 -0.004843908786960647 0.004819278510421844
101636942 -0.004776964885413299 0.004901930966754342
101666704 -0.004720096926718124 0.004981453180807005
101696466 -0.004793019748161192 0.0049332516274216325
101726228 -0.00486540022713752 0.004879836067685069
101755990 -0.00493875185472196 0.004826587007263442
101785752 -0.005020871535601544 0.0047670639055719935
101815514 -0.005080561142162683 0.004699901131058773
101845276 -0.005152443039777888 0.00463795286346101
101875038 -0.005212469957570649 0.004573605598730731
101904800 -0.005280857108316307 0.0045018916702008836
101934562 -0.005334617040178722 0.004429924270123584
101964324 -0.005303521555543509 0.004459450206309563
101994086 -0.005192949301626855 0.0045407451328328225
102023848 -0.005152922762207775 0.0046126332109132865
102053610 -0.005073280111627049 0.004684596626296247
102083372 -0.004993098506804553 0.004753552118686175
102113134 -0.0049623312369034365 0.004810114645310777
102142896 -0.004880674537066281 0.004879407022526288
102172658 -0.004727171295300586 0.0049511698417296175
102202420 -0.004609764697393924 0.005011263401826995
102232182 -0.004643169452926622 0.005056693542735295
102261944 -0.004692229460827959 0.0050860541616101415
102291706 -0.004776444285509938 0.00510460157055161
102321468 -0.004833122167010807 0.005123054422378955
102351230 -0.0049503865111897504 0.005147894345472579
102380992 -0.005050189707672834 0.005165482424056858
102410754 -0.0051483378461660255 0.005178247217518882
102440516 -0.005241701742888153 0.005194175842421645
102470278 -0.005347016161210837 0.005202753278203077
102500040 -0.005382404583137657 0.0052221975726835165
102529802 -0.005424262250587862 0.005237811861745641
102559564 -0.005330163104361417 0.005283951766524377
102589326 -0.005271446120636146 0.005323856894815984
102619088 -0.005205355006871428 0.005353589899762491
102648850 -0.005140583668495084 0.0053924040511198895
102678612 -0.00508357065075616 0.00542072592539676
102708374 -0.0050257487852007525 0.005453069802445755
102738136 -0.004960878838208502 0.005492767502779189
102767898 -0.004904408676261083 0.00551862252259413
102797660 -0.00486354965605038 0.005514427627628212
102827422 -0.00484040426056998 0.005492360443226931
102857184 -0.004819703656892206 0.005475362239151657
102886946 -0.004794895772206441 0.005457882812405919
102916708 -0.00483820254840319 0.00542693799298503
102946470 -0.00475027080238048 0.005419114707883251
102976232 -0.004731612681341868 0.005400530255911589
103005994 -0.004702221032041771 0.005383294352275174
103035756 -0.004683793727531885 0.005361585025385755
103065518 -0.004669863894805155 0.005363431216286791
103095280 -0.004666470579913228 0.005390670194597524
103125042 -0.00466350561987688 0.0054272837158286505
103154804 -0.004665620741610915 0.005464586804867653
103184566 -0.004668527224819035 0.0054936256238785645
103214328 -0.004729294466508385 0.005525734567297254
103244090 -0.004664869524684308 0.005564518849877977
103273852 -0.004662516542366423 0.005599703793677668
103303614 -0.0046645636311586575 0.005627651928838313
103333376 -0.004661089299875519 0.005663252718664818
103363138 -0.004568370469805032 0.005679508388835339
103392900 -0.004470172481670978 0.00569018866587784
103422662 -0.004373826067310135 0.005695942123210061
103452424 -0.004277167585005619 0.005703120719560751
103482186 -0.004180275018522948 0.005710691161892267
103511948 -0.004091483015508187 0.00571232774990375
103541710 -0.004004652007910766 0.005714214710339601
103571472 -0.003916039062375807 0.005715155291177418
103601234 -0.0038281729650897693 0.005711305084936999
103630996 -0.003819822905058399 0.0057110513934811175
103660758 -0.003863728868559093 0.00570491330641046
103690520 -0.0039036315628439983 0.005697041080724657
103720282 -0.003945066642130179 0.005692033132483921
103750044 -0.003984988030388931 0.005682117326409552
103779806 -0.004024860518687745 0.0056654627384391185
103809568 -0.0040652005237148785 0.005666578593109566
103839330 -0.004109462265673437 0.005650870364042507
103869092 -0.004153280852401845 0.005634646679947331
103898854 -0.004186031778709269 0.005636379984637874
103928616 -0.00422915765591419 0.005662743602465286
103958378 -0.0042694311336975 0.005682136279180928
103988140 -0.004302737878512962 0.005704059382122499
104017902 -0.004335075392115955 0.005728895581585473
104047664 -0.004376448643216747 0.005752183906874551
104077426 -0.004424958141054771 0.005767620448630906
104107188 -0.004463089844891659 0.005797681511951262
104136950 -0.004501996943664506 0.005817605593795272
104166712 -0.004549253578750554 0.005833368677515345
104196474 -0.004530816035751814 0.005887888527549096
104226236 -0.004515498061325316 0.0059359296452045855
104255998 -0.00450309042154465 0.005984612038581908
104285760 -0.00448743760320896 0.006035200071979236
104315522 -0.004469205186669208 0.006085598829003321
104345284 -0.004455025752239678 0.006134525056985003
104375046 -0.004443010373390776 0.006182368163869833
104404808 -0.004425685203237376 0.006233673660501711
104434570 -0.00441229031102623 0.00628312332470933
104464332 -0.004392420600068103 0.006264811297064324
104494094 -0.004378344762725657 0.006206894427341268
104523856 -0.004355451427799505 0.006148486945056859
104553618 -0.004339100365086791 0.0060965997767803036
104583380 -0.004318661169775981 0.006040645318712663
104613142 -0.00430619149380154 0.0059899071995000285
104642904 -0.004282358084855411 0.005935255966548708
104672666 -0.00432591054715608 0.005889237144598711
104702428 -0.00424513981718887 0.005836523570079469
104732190 -0.004260153705232148 0.0058216191579821075
104761952 -0.0042130007288418625 0.005899180544244801
104791714 -0.004253617535664803 0.005976024821784211
104821476 -0.004176472682752492 0.006049686743954685
104851238 -0.00415127851827902 0.0061258540967485155
104881000 -0.004129706546518095 0.006204960893202485
104910762 -0.00416704117613121 0.006288154285161249
104940524 -0.004082224029306157 0.006361537378596085
104970286 -0.004052314841512598 0.006439250202428274
105000048 -0.004027293994797617 0.006526512996212374
