# HZ S RI R 50
90000000 -0.0008858618213214216 0.005497107420520887
90029762 -0.0008604070203266811 0.005532176867505246
90059524 -0.0011016257586774212 0.00555710686200224
90089286 -0.000970247282560907 0.0055961780951897305
90119048 -0.001160267215820379 0.00562302994028411
90148810 -0.0010242869117352157 0.005661163061675088
90178572 -0.0010573209068148346 0.0056975777550253735
90208334 -0.0010322515746146795 0.005732611014977733
90238096 -0.0012841061680783908 0.005754815497704727
90267858 -0.0011520623246380202 0.00579435540544955
90297620 -0.0011452736985624378 0.0057795847629830074
90327382 -0.0010642806634239286 0.005734736326695031
90357144 -0.0010898145287702478 0.0056892041021753765
90386906 -0.0010110268059675216 0.005650723920290449
90416668 -0.001194682707295764 0.005597287251790931
90446430 -0.001013549514093168 0.005562830445284868
90476192 -0.0009380196705671202 0.005523055223777875
90505954 -0.0009118822962487861 0.005480811018232683
90535716 -0.0009351037635897532 0.005438000162538506
90565478 -0.0008586705324041863 0.005418101910561692
90595240 -0.0008741673605672313 0.005433772950034312
90625002 -0.0008386523590656364 0.005447777982690291
90654764 -0.0007547042304159532 0.005465667678686579
90684526 -0.000719008095801443 0.005480729060936407
90714288 -0.0007307818923297883 0.005493383355400926
90744050 -0.0006934940402555114 0.005507381020771315
90773812 -0.0006118700731221147 0.0055231818462130496
90803574 -0.0006194790273176539 0.005536592642801226
90833336 -0.0005362730053739746 0.005551445083337083
90863098 -0.000513244506129072 0.005526552320219533
90892860 -0.0005353996239600617 0.005503105580241824
90922622 -0.0004665571492052534 0.0054815405123028954
90952384 -0.00044469657910407027 0.005458530193402317
90982146 -0.00046740682298316406 0.005436548980389691
91011908 -0.00039962869943731846 0.005412922422339946
91041670 -0.00042080165054818184 0.005391953956004858
91071432 -0.00039742353921257904 0.0053685672207051125
91101194 -0.0005019817321551737 0.005350860277160195
91130956 -0.00034701814625360064 0.005360681817013256
91160718 -0.00041855891806001817 0.005393606064517579
91190480 -0.0004516126116556466 0.005422656636672389
91220242 -0.0006095593088658577 0.005455414793799366
91250004 -0.0005191041543722957 0.005486801110017958
91279766 -0.0006774258970564667 0.0055153996889030455
91309528 -0.0005467642266087744 0.005548575145274793
91339290 -0.0006241846689929598 0.005576133599981168
91369052 -0.0006188348192368677 0.0056111164618084745
91398814 -0.000811311830909791 0.005614823831477987
91428576 -0.0006836842113544795 0.005597027379765708
91458338 -0.0006383610371577821 0.0055736255174634744
91488100 -0.0006754287503309702 0.005547329118370347
91517862 -0.0006708745711524079 0.005525202908613286
91547624 -0.000627962993193647 0.005503445784792207
91577386 -0.0006259611137937074 0.005479066255982212
91607148 -0.0006588040888593818 0.0054523614330317435
91636910 -0.0006537042508443882 0.005429161294797564
91666672 -0.000615177897351781 0.005410183614329812
91696434 -0.0005776837520784591 0.005425883791210486
91726196 -0.000471230242039054 0.00544419166494254
91755958 -0.0003973234052224549 0.005460200127808253
91785720 -0.00035769756973816715 0.005473249856833107
91815482 -0.00024884813910442945 0.005484850267448265
91845244 -0.00017478385430029129 0.00549542838725393
91875006 -0.00013542201638917076 0.005506575401017893
91904768 -0.00016563475945789843 0.005516159069458947
91934530 2.0410755664605572e-05 0.005516144438406122
91964292 4.620940566671088e-05 0.0055351492139455545
91994054 7.961597521120666e-05 0.005555626698190795
92023816 -6.134028415248657e-05 0.005586113636883983
92053578 4.082925169544584e-05 0.005605257324318018
92083340 4.360296614909212e-05 0.005630640336788555
92113102 7.453996621919844e-05 0.005651080039756589
92142864 4.2658284715069274e-05 0.005677529019483591
92172626 7.388745436443219e-05 0.005700505091659475
92202388 -6.382860309077723e-05 0.0057287857142448335
92232150 3.170768854122492e-05 0.005726197649892131
92261912 -8.838253561202921e-05 0.005673033135006017
92291674 2.6629843058733615e-05 0.005621474862653967
92321436 -2.2858040697183518e-05 0.005569819308698826
92351198 -7.96462667834603e-06 0.005519014837588796
92380960 -5.436024746264155e-05 0.005469763931924934
92410722 -6.861790159950677e-05 0.005421300376304818
92440484 -5.1031142246478085e-05 0.005371242539327651
92470246 -6.444740989995087e-05 0.005323707752122997
92500008 -0.0001074618401102044 0.005275567808679639
92529770 -0.00010930997824319575 0.0052969288713430145
92559532 -8.564531369592693e-05 0.005317948276969524
92589294 -0.00011805707433329685 0.0053374291322906275
92619056 -9.652885607271106e-05 0.005361393418761683
92648818 -8.707332803821999e-05 0.00537813721487607
92678580 -0.00013439203962645923 0.005402586436067626
92708342 -0.00011266831704319787 0.005424228642174364
92738104 -0.00011902417293695546 0.005445947471870324
92767866 -0.00015116678699181115 0.005464036371285988
92797628 -0.00010670665153133795 0.005481850741658818
92827390 -0.00010300522283625869 0.00549323655281735
92857152 -7.007894032533726e-05 0.005503748168312945
92886914 -0.0001195168398231555 0.005513326263077115
92916676 2.044831811583751e-05 0.00552883287809187
92946438 2.588227302879143e-05 0.005537833509636405
92976200 5.977220259099556e-05 0.005547289613152009
93005962 1.6464260901027244e-05 0.005556027903538249
93035724 0.00014366779462123778 0.005564858887466216
93065486 0.00010135118735108025 0.005572074922828401
93095248 0.0002850748016375718 0.005563822598546031
93125010 0.00034408074217271985 0.005556946160247309
93154772 0.00045253851204806383 0.0054075877522784905
93184534 0.00046955560996474053 0.005530148437970834
93214296 0.0005745228366666807 0.005523190070927633
93244058 0.000602731556708582 0.005509438080504382
93273820 0.0007564163520432086 0.005484118197128128
93303582 0.0008366285844049868 0.005465219624284169
93333344 0.0009404533347825035 0.005439942247044273
93363106 0.0008880594393135023 0.005452434794333239
93392868 0.0008152360204562324 0.00546129928884197
93422630 0.0007949587910744175 0.005461626036053708
93452392 0.000735067973484082 0.005476373385461056
93482154 0.0006598027445290023 0.005483609225187415
93511916 0.0006290582877487646 0.00548828321295918
93541678 0.0005749386118040609 0.005489294017034373
93571440 0.0005006613061600044 0.005490843583381362
93601202 0.0005178451344801329 0.005476500041591212
93630964 0.000495109578396477 0.005483619544180093
93660726 0.0005345634074059854 0.005478216263568629
93690488 0.0006176287483562082 0.005469618226956534
93720250 0.0004995344730511943 0.005529581493779247
93750012 0.0007033579704259671 0.005455051059108998
93779774 0.0008024995468213195 0.005441748515423863
93809536 0.0007909279001437516 0.005431801962874178
93839298 0.0009082147224516339 0.005416911667381485
93869060 0.00096868210812817 0.005404347520111883
93898822 0.0010353623389942725 0.005386099197339073
93928584 0.0010385180249181062 0.005365662673555413
93958346 0.0010783019216030747 0.005342677981885107
93988108 0.001028309209966348 0.00532695807469982
94017870 0.0011035206706128712 0.0053014618048544526
94047632 0.001059780368161287 0.005286155077299532
94077394 0.0011639442024809184 0.005257186831765094
94107156 0.0011668329955315728 0.005235364035888171
94136918 0.001204333513820402 0.005212248064047003
94166680 0.0012116698649321364 0.0051892410563939995
94196442 0.0012424604860865897 0.005447068507832578
94226204 0.0012199251794672208 0.005730783884766897
94255966 0.0013089165215983732 0.006048562010836263
94285728 0.0013069517270111186 0.0064001240998810185
94315490 0.001312490968125254 0.0067980956802655736
94345252 0.001316535261684649 0.0072512144984797295
94375014 0.001265226652794405 0.007761650842952055
94404776 0.0012183672238962986 0.008349389087242896
94434538 0.0011065602016561641 0.009020173167209366
94464300 0.0011301210750468507 0.008740402267135832
94494062 0.0012584312549372364 0.008047627622408779
94523824 0.001332218831766287 0.007442474318212228
94553586 0.0013707812863243591 0.006910786402275851
94583348 0.0014155969868007035 0.0064414551520977185
94613110 0.0014238458721349636 0.006032517254688689
94642872 0.0014350085593633616 0.005659604891782195
94672634 0.0014496336814837736 0.0053270817163901495
94702396 0.0014486057792034808 0.005027811472440098
94732158 0.0014464027636881024 0.004822217117940308
94761920 0.0014702260255518827 0.004764499403911502
94791682 0.0014664150758062428 0.004707895412900266
94821444 0.0015169953744263252 0.0046458497067177916
94851206 0.0015171996105318474 0.004588182023394163
94880968 0.001572453196507562 0.0045258252952440564
94910730 0.0015893807115054909 0.004462585073786866
94940492 0.001618065947979455 0.004405733097350146
94970254 0.0016090855139851315 0.004349236119976383
95000016 0.001657134787123506 0.004284897092016728
95029778 0.0016540998858900079 0.004290389911286685
95059540 0.0016956444408543513 0.004288283342223431
95089302 0.0017143610336357055 0.004290490675368064
95119064 0.0017392992583456324 0.004286546912765734
95148826 0.0017330066740878572 0.004286811283076422
95178588 0.0017754179689274453 0.00428229766515633
95208350 0.00179811190575489 0.004282439160216481
95238112 0.001824331968375509 0.004277347079231223
95267874 0.0018392718172205859 0.004274778803433119
95297636 0.0018730347169488178 0.004251013185660439
95327398 0.0019047841723002102 0.004215439726621117
95357160 0.0019326658488324035 0.004183648148008704
95386922 0.0019698045932201513 0.0041466790507826146
95416684 0.0020008591652874983 0.00410828090873093
95446446 0.0020268596266935722 0.004067357495242388
95476208 0.002063992707818382 0.004028858361409989
95505970 0.0020923663404181104 0.0039894989207765056
95535732 0.0021226933507987426 0.003947517773669072
95565494 0.002166865319658917 0.0038999594300009174
95595256 0.00222946366152379 0.0038394393724268026
95625018 0.002276041128017813 0.003778470103251245
95654780 0.0023286549134711454 0.00371360537750138
95684542 0.0023798010014565514 0.003655057900513668
95714304 0.0024324804895888676 0.0035869277971327398
95744066 0.002480102656339414 0.0035195547356435624
95773828 0.002521756844563808 0.0034514183227364196
95803590 0.002574610105386216 0.003372321249593214
95833352 0.0026211297568469786 0.0032997836909549744
95863114 0.00263612068377403 0.0031940168100867104
95892876 0.002648283479948042 0.0030956302963025296
95922638 0.002659735452687382 0.002993197719324392
95952400 0.002674900924844136 0.0028815147845485437
95982162 0.0026728720208319184 0.0027944882694165155
96011924 0.0023767672458646022 0.0027996382039247158
96041686 0.002676671118660868 0.002557972583678649
96071448 0.0026613794593033867 0.0024660264421504595
96101210 0.002677930201464524 0.002342635117887618
96130972 0.002406296679289726 0.0024408209597437122
96160734 0.00267455434712676 0.0022117654911908984
96190496 0.002726043669653649 0.0021052949947067278
96220258 0.0027175080223647793 0.0020351941075581826
96250020 0.002732549730331806 0.0019539738223171756
96279782 0.0027314307136574348 0.0018631080618479842
96309544 0.0027483173330861504 0.0017669833063242645
96339306 0.0027527649045138956 0.0016755185409893004
96369068 0.0027487327754889645 0.001573880873330815
96398830 0.0027436588808240677 0.001483036733938305
96428592 0.0027599344432754974 0.0013282193098403446
96458354 0.0027522510265626473 0.0012396225556105375
96488116 0.002855573673599116 0.0008434282686158557
96517878 0.002735035799466975 0.0009866353133015106
96547640 0.0027087328628929894 0.0009068522780320697
96577402 0.00270070243711203 0.0007409625705858107
96607164 0.002674987830894828 0.0006066990631207272
96636926 0.0026406973638898683 0.00019932709784761197
96666688 0.002600973885904412 0.00034411430887853957
96696450 0.002524556810871795 0.00022141331662953732
96726212 0.002447891838887543 9.8292751093633e-05
96755974 0.0024043753687430845 0.0002115010335132656
96785736 0.002278561462290029 -0.00013984533149215657
96815498 0.0022726269446730093 -4.325741992811719e-05
96845260 0.0020884366089642214 -0.0003669738050578458
96875022 0.001998165602106434 -0.0004711593297099872
96904784 0.0018950239418950702 -0.0005744704551136633
96934546 0.0017723883225083143 -0.0006842900965796843
96964308 0.0016941371497713564 -0.0007827229125593227
96994070 0.0015985906759610757 -0.0008838148280140659
97023832 0.0012084573144548701 -0.0010926536118147918
97053594 0.0013982432742827642 -0.0010764671162215838
97083356 0.001289418005638545 -0.0011736159704071798
97113118 0.0014715392600980976 -0.0011894229783751624
97142880 0.0010415799062061257 -0.001355406319062996
97172642 0.0005543259368876272 -0.0014419289570584896
97202404 0.0008135658321080087 -0.0015365433667549361
97232166 0.0006587551342553121 -0.001662506116488693
97261928 0.0005123401277355054 -0.0017404755387450106
97291690 0.0003759102606379141 -0.0018158770722462572
97321452 0.00018932315723378272 -0.0018795268659943423
97351214 3.6151353608503494e-05 -0.0019506402363236206
97380976 -0.00010431076391695847 -0.001975625453420649
97410738 -0.0003012396848559488 -0.0020551484731577696
97440500 -0.00046440308078278764 -0.0020874729255557552
97470262 -0.001092691418480563 -0.0017511916194469263
97500024 -0.0008406398081222795 -0.002128875573967396
97529786 -0.0010085642951570579 -0.002150494248518942
97559548 -0.001626558719507697 -0.001659572134526087
97589310 -0.001390566664733837 -0.0021571951631162898
97619072 -0.001597350305224276 -0.002104419135250737
97648834 -0.0016891729251726105 -0.0021777056547974036
97678596 -0.0019120344014874158 -0.0021209110691503123
97708358 -0.002409674421419104 -0.0014426123361322802
97738120 -0.0022405484581119275 -0.0020785727208885154
97767882 -0.0024163221759334738 -0.002029030583472267
97797644 -0.0022129226546618065 -0.0026151048617109748
97827406 -0.002747324711705753 -0.001814463962271276
97857168 -0.002952514336456923 -0.0016575443085971272
97886930 -0.003094811775821559 -0.001509749151741
97916692 -0.0030247611367303947 -0.002152339135442533
97946454 -0.0033456244422682955 -0.0012143040915226272
97976216 -0.003348383630376946 -0.001847720228134196
98005978 -0.003486416357379727 -9.920372445960405e-05
98035740 -0.00360842223949471 -0.0007248381509110842
98065502 -0.00371011123467382 -0.0006734329210414145
98095264 -0.0038041481679312885 -0.0006803378986752127
98125026 -0.003914863010259007 -0.0006154280751412891
98154788 -0.003869046855853577 0.00021151701720264468
98184550 -0.0041289047707588995 -0.0005954146644882428
98214312 -0.004272297752750029 -0.0005667477029855107
98244074 -0.004199778633149512 0.00033082393411468713
98273836 -0.004518549341854407 -0.0005390113500334207
98303598 -0.004603874821660639 -0.0004783703893186314
98333360 -0.004703748931012839 -0.0004781841690912775
98363122 -0.004762288281909637 -0.0004385972324255466
98392884 -0.0047853887081028565 -0.0003232545905912266
98422646 -0.004804879211878946 -0.00032184148999142586
98452408 -0.004833368101288822 -0.0002548624423473947
98482170 -0.004855222668378031 -0.00013504369849923282
98511932 -0.004904546658779872 -0.00011622728990086092
98541694 -0.0045544027815531294 0.000853264697507719
98571456 -0.0049162572830401315 8.682784147862231e-05
98601218 -0.005209609468355356 -0.0007527484552736115
98630980 -0.004962016353302615 0.0002949256557773619
98660742 -0.004986385352857976 0.00042960511358045743
98690504 -0.004570555668249902 0.0013205587291748521
98720266 -0.005401311179221154 -0.0002375454857716175
98750028 -0.005049797145174867 0.0007285609483421756
98779790 -0.005073322585019696 0.00085972089237134
98809552 -0.005092181680913406 0.0009138042843161826
98839314 -0.005069501733181243 0.0010699303849895552
98869076 -0.005128599307818087 0.0010923905864669563
98898838 -0.005557703577920099 0.0004785159402458338
98928600 -0.005129225490816141 0.0013315834036871895
98958362 -0.005645030779043457 0.0006287108231088405
98988124 -0.0052128660348325665 0.0013904532607884367
99017886 -0.005294832356891702 0.001511650312750478
99047648 -0.005350734595580298 0.0015160520099047788
99077410 -0.00533956240960225 0.0016333530209823007
99107172 -0.00536395398943286 0.0016701468408142522
99136934 -0.005431538584136389 0.0016839617297827758
99166696 -0.005303204547615211 0.001839309597006001
99196458 -0.005456409523529737 0.0018012396653947235
99226220 -0.0054219949288487074 0.0018585931736755238
99255982 -0.005470341301739319 0.0018413325179740458
99285744 -0.00542410057323003 0.0019073156737374629
99315506 -0.005365434111675073 0.0019302183498034946
99345268 -0.0054646425675664596 0.0019231896479635893
99375030 -0.005384769361921503 0.0020082067543631477
99404792 -0.0054628478979936584 0.001970266632935272
99434554 -0.005454025196377953 0.0019876036456129673
99464316 -0.005434065956621521 0.0021100308225024222
99494078 -0.0053771011824910175 0.002226528179973279
99523840 -0.005203712142358673 0.0024365447394584672
99553602 -0.005206312833530788 0.0025311259384491786
99583364 -0.005743747954559384 0.0021133094776647856
99613126 -0.004426047639329815 0.003254901970868655
99642888 -0.005008610530378909 0.002891557222851976
99672650 -0.0048758544205871855 0.003012779908461736
99702412 -0.0054810025031245355 0.0026512330397125143
99732174 -0.004827241724654134 0.003173088224394994
99761936 -0.00470700627978631 0.003273755948868241
99791698 -0.004968168198087544 0.0030951422729574244
99821460 -0.004943829611392498 0.0031157971554669366
99851222 -0.005048244274108794 0.0030548186596830217
99880984 -0.005639553363346874 0.0026147251923229055
99910746 -0.005060749763274634 0.0030478153332060766
99940508 -0.0057148658627419946 0.002556606147075983
99970270 -0.00512652346441573 0.0029904191949597023
100000032 -0.005161086733261709 0.002986574824753106
100029794 -0.005151472006161091 0.003014809591009306
100059556 -0.005134220178883028 0.003049701495978113
100089318 -0.005128054393610764 0.0030911926809951357
100119080 -0.005107157786382351 0.0031349327249514027
100148842 -0.005099703690211016 0.003171385183784691
100178604 -0.005088341655991723 0.0032122095467618725
100208366 -0.0050732543694883515 0.003239817817898287
100238128 -0.00506088668867992 0.0032850026895958092
100267890 -0.005053393837685975 0.003319960197891855
100297652 -0.005013790707632081 0.0033551172330856965
100327414 -0.005019754680267695 0.0033861641203815607
100357176 -0.005006843225897741 0.0034157125335765198
100386938 -0.00502039544404503 0.0034310972014707773
100416700 -0.005017502938109352 0.0034546793043597093
100446462 -0.005020382651713434 0.003482013173540942
100476224 -0.005025208640831585 0.0035038587283715617
100505986 -0.005047234822130684 0.0035143872155763774
100535748 -0.005058058795530681 0.0035334709008210717
100565510 -0.0050727326423556166 0.003564821636748294
100595272 -0.005126776630449333 0.0036101724224753546
100625034 -0.005172468484232548 0.003649796361774683
100654796 -0.005231520940960183 0.003695038008386663
100684558 -0.005278103470434069 0.003737548703624589
100714320 -0.005333187754539575 0.003777960562887708
100744082 -0.005382824744889512 0.003822239706689563
100773844 -0.005442084146284453 0.003860517246053324
100803606 -0.005502089884111743 0.003900790695629925
100833368 -0.005556589410833788 0.003943365440822656
100863130 -0.005511494561034877 0.003973286756180704
100892892 -0.005456172503865012 0.0039883996572146274
100922654 -0.005403165971978197 0.004003839724768508
100952416 -0.005355094528046412 0.0040265802323430295
100982178 -0.0053100272310138055 0.00404575053613716
101011940 -0.0052471296687004905 0.004069358798588602
101041702 -0.005203342068704833 0.004082200292065203
101071464 -0.005155210754822846 0.004101297024639394
101101226 -0.005108569403808299 0.004121694610453522
101130988 -0.005087735674706853 0.004133326392508512
101160750 -0.005089330574547014 0.004147028661801428
101190512 -0.005095742368527056 0.004148517603282123
101220274 -0.005087693757442581 0.004155335100297274
101250036 -0.005090689781594037 0.0041678264723088825
101279798 -0.005090471048173899 0.004172272267135901
101309560 -0.005093408020746272 0.004187830358371355
101339322 -0.005096332467856715 0.004194383055208314
101369084 -0.005089094020713576 0.004197581160698683
101398846 -0.005084278648217956 0.004234229428363729
101428608 -0.005040378381905705 0.0043207962632602175
101458370 -0.004987597134069789 0.004404817922618628
101488132 -0.0049458672533985995 0.004484042562239368
101517894 -0.004893218390164693 0.004571409183297911
101547656 -0.0048348901780656695 0.00464717582659477
101577418 -0.004789073624409657 0.004733050440822996
101607180 -0.004726153202701988 0.00481574783349978
101636942 -0.00466310304449797 0.0048893117883075515
101666704 -0.004612513779300856 0.00496225748022479
101696466 -0.0046914284607643165 0.004920877086824201
101726228 -0.004770396667964519 0.004870168562298942
101755990 -0.004846116553313872 0.0048100304120183264
101785752 -0.004912005436701027 0.004752561020190211
101815514 -0.004983506150081868 0.0046905987273810745
101845276 -0.005053639507022866 0.004621168032996093
101875038 -0.005122674248687589 0.004553658658125389
101904800 -0.005185679788564416 0.004485062513209281
101934562 -0.005247536413564585 0.004408902885668237
101964324 -0.005185199764655618 0.004444744540155144
101994086 -0.005143389905134817 0.0045139535864505125
102023848 -0.005051364441660449 0.004588086204504663
102053610 -0.004976318244315015 0.004653357635853174
102083372 -0.004957459272023362 0.004714372516519838
102113134 -0.004813860174472533 0.004787367579447432
102142896 -0.0047281045122984046 0.004850646575516179
102172658 -0.004644470018736517 0.004911219969737055
102202420 -0.004559839701134258 0.004963491063551321
102232182 -0.004527161451549452 0.005017815232361534
102261944 -0.004680213441746135 0.005026793000683989
102291706 -0.004702927657424916 0.005059673703698053
102321468 -0.004786500949046103 0.005083383749943291
102351230 -0.0048823057714697405 0.00510722359335163
102380992 -0.004985256639004915 0.005111658011948608
102410754 -0.005069153397592763 0.005136904954990208
102440516 -0.005171267344478659 0.005145890663639721
102470278 -0.005274528928736012 0.005151372685808313
102500040 -0.00537930731923018 0.005165795973739353
102529802 -0.005315644823769297 0.005206284232098398
102559564 -0.005258357753530911 0.005245916578795811
102589326 -0.005203258312256204 0.005273732343783618
102619088 -0.005144836096385312 0.005314694798575379
102648850 -0.005083931274415273 0.005345832783170631
102678612 -0.005023138430561211 0.005375340985299772
102708374 -0.00497059937045281 0.005414014607940276
102738136 -0.004916003087258132 0.005438633452821803
102767898 -0.004855352732311585 0.0054723227699069055
102797660 -0.00481981695582442 0.0054647751134921565
102827422 -0.004796410718427672 0.005448795939170581
102857184 -0.004775449791019001 0.005431033937578039
102886946 -0.004752934476334573 0.005407953337624546
102916708 -0.004732986770740931 0.005400560714055462
102946470 -0.00471477855534359 0.005376544446692703
102976232 -0.004880425218354678 0.005336991650903334
103005994 -0.0046679306814360055 0.00534118873184426
103035756 -0.004649141307070109 0.005313947295501274
103065518 -0.0046343366885310535 0.005326192149169678
103095280 -0.004630399107769878 0.005353807989672856
103125042 -0.004639883095571849 0.005389090649161936
103154804 -0.004634798949323773 0.005424565808592379
103184566 -0.004635552642967888 0.005459066642028199
103214328 -0.004642989839369794 0.005488420105181662
103244090 -0.004639218275630105 0.0055249470484255965
103273852 -0.004732226306548739 0.005550158006316934
103303614 -0.00464352045721737 0.005592749321324393
103333376 -0.004642681201567759 0.0056212616716980746
103363138 -0.004544027021537791 0.005639111472282202
103392900 -0.004451334426657726 0.0056502822776624525
103422662 -0.004353665507262749 0.005662820503458243
103452424 -0.004260708139273461 0.005668923748895517
103482186 -0.004171919220400636 0.005677876085906797
103511948 -0.004080347266627722 0.005678148822433299
103541710 -0.003993130762866973 0.005682910926046321
103571472 -0.0039042085459465754 0.005683689074098656
103601234 -0.0038160292796338017 0.005684111906224369
103630996 -0.0038087815530764733 0.005679349199456956
103660758 -0.003853072497122267 0.0056751891781606535
103690520 -0.003894563631397406 0.005667619701296419
103720282 -0.003939925524774768 0.005662062529913516
103750044 -0.0039837558289752785 0.005652787268005
103779806 -0.00401829217969792 0.0056407288595789855
103809568 -0.004089199632267837 0.005633141470474441
103839330 -0.0041311715776710944 0.005622510087088025
103869092 -0.00417700506033497 0.005611892293210472
103898854 -0.004211084419640406 0.005611026660215098
103928616 -0.0042523734950655106 0.005631353994715746
103958378 -0.004288370529858695 0.00565943330952035
103988140 -0.0043270572712166225 0.005678689738399979
104017902 -0.004337271128818137 0.005702621865672019
104047664 -0.004380843012524801 0.005723506602580292
104077426 -0.004419022942807315 0.0057456201823927406
104107188 -0.004457112360601131 0.005770275696486434
104136950 -0.004502077421116399 0.005788265114738462
104166712 -0.0045393163443170174 0.005811555045852089
104196474 -0.004530698963533103 0.005860560187503002
104226236 -0.004513459638487579 0.005911591475333151
104255998 -0.00450581752184248 0.005958881631422121
104285760 -0.004489895995400011 0.006010004113700225
104315522 -0.004473414552293442 0.0060590072129301726
104345284 -0.004450991096321464 0.00610963151042201
104375046 -0.00443978725203982 0.006158421739316305
104404808 -0.004427897107440639 0.006211337804922563
104434570 -0.0044100636780376404 0.006258225798022945
104464332 -0.004394932334321663 0.006240805606801812
104494094 -0.004371896075735473 0.006184196013922907
104523856 -0.0043650025092943365 0.006126303722245176
104553618 -0.004343362575841956 0.006073826531344859
104583380 -0.004326089529155794 0.006026552292797812
104613142 -0.0043041982313380715 0.005968322869369364
104642904 -0.0042919567542084956 0.00591739451066197
104672666 -0.004269540232039468 0.005865960635232966
104702428 -0.004253115712587981 0.005819700662546153
104732190 -0.004236659781762962 0.005806119957119613
104761952 -0.004219092101667968 0.005880198527310403
104791714 -0.004199288013697675 0.00595834072219157
104821476 -0.004181051319074234 0.0060335698344569175
104851238 -0.004160839810450437 0.006109614057990224
104881000 -0.0041373733356352095 0.0061906199546864745
104910762 -0.004120155603326273 0.006274981521892199
104940524 -0.004091472695687 0.006347939290576853
104970286 -0.00406192216104347 0.0064323811116669925
105000048 -0.004030895798108822 0.006511403030175222
