# HZ S RI R 50
90000000 -0.0008756913474556937 0.005494493782540942
90029762 -0.0008188914935002271 0.0055228835211900765
90059524 -0.001094841755104888 0.005552496415155304
90089286 -0.000957128003346679 0.005595578787907443
90119048 -0.0011528764022693805 0.005620876644500715
90148810 -0.0010343664830689784 0.00566394753315177
90178572 -0.001029576879504753 0.005692235455052491
90208334 -0.0010585041174186946 0.005740149524337337
90238096 -0.0012736152831026016 0.005752329669957038
90267858 -0.0011977099233869016 0.005804248083244123
90297620 -0.0011172781978769917 0.005773540756418156
90327382 -0.001054703111145615 0.005733394643441726
90357144 -0.0010828133730222372 0.00568557206805087
90386906 -0.0010021105326387613 0.0056466772748482484
90416668 -0.001202798806330296 0.005597155391721502
90446430 -0.001000491872933219 0.005560830589956711
90476192 -0.0009278891091742076 0.0055210087483809865
90505954 -0.0009024783576213596 0.005478531922548204
90535716 -0.0009280452791483134 0.005437474179232393
90565478 -0.0008527065454517315 0.005416812153313509
90595240 -0.000865539644647118 0.005431330805213818
90625002 -0.0008262656980403177 0.0054447755369419525
90654764 -0.000747441076904908 0.005461237498463013
90684526 -0.0007102517487750318 0.005477402705221908
90714288 -0.0007204265774328478 0.005491537419070218
90744050 -0.0006830086117262081 0.00550474135482932
90773812 -0.000600834190540014 0.005519082201871509
90803574 -0.0006080000010668133 0.005531849566901449
90833336 -0.0005266183805563396 0.005544292383453365
90863098 -0.0005043313648139444 0.005524334070623456
90892860 -0.0005236641551810448 0.005500219927155967
90922622 -0.0004560297073664419 0.005477761796189312
90952384 -0.0004346732804701876 0.005455091689797357
90982146 -0.0004551291427078707 0.00543394712049906
91011908 -0.00038891067985771387 0.005409482514403239
91041670 -0.0004084537347087135 0.005389208026172805
91071432 -0.0003870767127962915 0.005365837278091513
91101194 -0.0004914640371455442 0.005346146913952683
91130956 -0.0003363635490376014 0.005356279816951096
91160718 -0.00040900490716644215 0.005387566625559566
91190480 -0.000440973467613749 0.005419568850862544
91220242 -0.0005997353318662435 0.005452010654435958
91250004 -0.0005055256609479146 0.0054818929413538615
91279766 -0.0006661812908380403 0.005511980600437497
91309528 -0.0005339045566127401 0.0055463805763789915
91339290 -0.0006128293656636093 0.005571412120209659
91369052 -0.0006089224911514496 0.005606793430235418
91398814 -0.0007989828455879624 0.005611370016113725
91428576 -0.0006707980005114585 0.005590244290042839
91458338 -0.000626883280426238 0.005569907153483982
91488100 -0.0006617611820991164 0.005542498543692498
91517862 -0.0006596274905503706 0.00551877432024831
91547624 -0.0006198925107020471 0.005498103770095766
91577386 -0.000612553004608855 0.0054762637270180615
91607148 -0.0006467055790399265 0.005447562340235817
91636910 -0.000642480811434698 0.005425058246949558
91666672 -0.000601367987288789 0.005405400868273076
91696434 -0.0005672539625240317 0.005421127090583188
91726196 -0.000455798930089394 0.00543672498892733
91755958 -0.000384298529300769 0.0054542973674483975
91785720 -0.00034550339141306227 0.005468744594523134
91815482 -0.00023550240433594156 0.005481258993771837
91845244 -0.00016187015171930484 0.005489649165574989
91875006 -0.0001207168708798569 0.005499655495040519
91904768 -0.00014994295778901034 0.00551031474375116
91934530 3.415914802402141e-05 0.005511154611336043
91964292 5.769016543017993e-05 0.005528673887700886
91994054 9.222897057443271e-05 0.005549837258944104
92023816 -4.799574281956452e-05 0.005578962346969942
92053578 5.6825292536343245e-05 0.005600732814727732
92083340 5.75148887720588e-05 0.005621778959453989
92113102 9.029514180242336e-05 0.005643842439398438
92142864 5.731104639361322e-05 0.005668577929284563
92172626 8.84982396791173e-05 0.005690684658975466
92202388 -4.8887401762001964e-05 0.005719385336556628
92232150 4.715430095658054e-05 0.005718224919869429
92261912 -7.125895185230832e-05 0.005663853583943423
92291674 4.206803205857539e-05 0.005613511066640867
92321436 -4.8392200055327175e-06 0.005562676648608234
92351198 6.065795845738456e-06 0.0055110217834802005
92380960 -3.6627586777946856e-05 0.005464609403475867
92410722 -5.185606994332663e-05 0.005414059130048523
92440484 -3.640338975214999e-05 0.0053636014559439865
92470246 -4.895483506342569e-05 0.005313239788599643
92500008 -8.886197458016154e-05 0.005268599320500015
92529770 -9.21889147062402e-05 0.005287376375323397
92559532 -6.996844297550969e-05 0.005310950517082956
92589294 -0.0001033964053558071 0.0053278640672131195
92619056 -7.775617620223982e-05 0.0053529594033044385
92648818 -8.499400443247763e-05 0.005373884136544312
92678580 -0.00011660336751867438 0.005393579562321508
92708342 -9.419713272354723e-05 0.005416061612263215
92738104 -9.814853526087226e-05 0.005437717773172538
92767866 -0.00013371586655474145 0.0054591642448657525
92797628 -8.737277029919484e-05 0.005473056952925096
92827390 -8.10649772324717e-05 0.005482860707139412
92857152 -5.0893632829510774e-05 0.005498622223623326
92886914 -0.00010002615429126119 0.005503933841717946
92916676 4.069140228750318e-05 0.005517768745925331
92946438 4.768988316999212e-05 0.0055276587420798
92976200 7.965762636913237e-05 0.0055387131303201486
93005962 3.810390808888497e-05 0.0055418867178059425
93035724 0.00014886992459928078 0.005554870259440082
93065486 0.00012227069632607412 0.005559802903557909
93095248 0.0002744826860986386 0.005565633405688584
93125010 0.0003964634829431664 0.005533224044416961
93154772 0.0004553356026295633 0.005535777922558993
93184534 0.0005217603167770463 0.005497376452403603
93214296 0.0006121761133049506 0.00550429544186158
93244058 0.0006573074418822171 0.005481788010485972
93273820 0.0008092296285095896 0.00546007019935549
93303582 0.0008594421330078152 0.005449529583473643
93333344 0.0009648397835276466 0.005423067406694562
93363106 0.0009134724828608877 0.005437575460362837
93392868 0.0008402271297569598 0.005448250428267117
93422630 0.0007871835758359385 0.005457847148971737
93452392 0.0007598061303116458 0.00546263961992227
93482154 0.0006523019375084543 0.005479282684006661
93511916 0.0006543935860395621 0.005471529908666793
93541678 0.0006029878866640079 0.005472591018695014
93571440 0.0005529664818858307 0.0053713091245037115
93601202 0.0004985047868257513 0.005472375424439358
93630964 0.0005250462520012792 0.005467883870705252
93660726 0.0005643580144364797 0.005461396843023816
93690488 0.0006477200965837827 0.005450572087117031
93720250 0.0006878231438014827 0.005442608402680513
93750012 0.0007504494403804022 0.005435113017312551
93779774 0.0008321539667786665 0.0054240263102155566
93809536 0.0008183353689534156 0.005409930710907715
93839298 0.0009346586491314614 0.005396047739559306
93869060 0.000999619303039648 0.00538337095000643
93898822 0.0010690160012379447 0.005364203844969402
93928584 0.0010715726627182995 0.00534460905920325
93958346 0.0011078359072060333 0.005321357316185404
93988108 0.0010639623357071677 0.00530181438653353
94017870 0.0011348769552644664 0.005276311283477355
94047632 0.0011070424581531447 0.005256832963990337
94077394 0.0011949557452423834 0.005231159565459298
94107156 0.0011996513763262856 0.005210275079445321
94136918 0.0012382213320567231 0.0051861230805653365
94166680 0.0012475784430145858 0.005160950673437805
94196442 0.0012795291865275481 0.005418109801470526
94226204 0.00126039549479278 0.005702601347139154
94255966 0.001350187160022837 0.006014645570124168
94285728 0.0013541686140186374 0.0063661595252189
94315490 0.0013595740720660529 0.006762766139905067
94345252 0.0013729118753409957 0.00720959453397673
94375014 0.001328411605828366 0.00771459450173382
94404776 0.0012910210678204015 0.008301234865142395
94434538 0.0011815923977934384 0.008975021993376343
94464300 0.0012040353776314684 0.00869111728304489
94494062 0.0013279864228855152 0.007995589313143672
94523824 0.0014003657409226307 0.007392852846544743
94553586 0.0014279566158349377 0.006864161448147023
94583348 0.001470524647043344 0.006398516743112741
94613110 0.0014778099137055817 0.00598613281235404
94642872 0.0014827764933033796 0.005616967635518721
94672634 0.0014979362927494781 0.00528572531533155
94702396 0.001496866043575377 0.0049861269478047214
94732158 0.0014921080893988644 0.004782714962643889
94761920 0.0015155315761488475 0.004721647357982594
94791682 0.0015107404943799374 0.004660772720852421
94821444 0.0015640991302795228 0.004598315524908218
94851206 0.0015628992356070304 0.0045397800165252935
94880968 0.001617652806396216 0.004475314514043332
94910730 0.0016344314352638885 0.004418855152133323
94940492 0.0016690755976987487 0.004356110332301103
94970254 0.001658287949187924 0.004295742501075192
95000016 0.001703570156844994 0.004235374036894858
95029778 0.0017020544556564541 0.004238412051698603
95059540 0.001743140577066266 0.004233715033447174
95089302 0.0017638421356823482 0.004233015292800387
95119064 0.0017934333943520958 0.004229283709499368
95148826 0.0017870903168422094 0.0042282010314890145
95178588 0.001829740031422885 0.004222196475412697
95208350 0.0018539001879294954 0.0042171827928275405
95238112 0.001894941058658624 0.004207301066837152
95267874 0.001899107885521216 0.004201647906014437
95297636 0.0019316272811009348 0.004174988357488194
95327398 0.0019657485771470196 0.004141432390309608
95357160 0.0019892842831671087 0.004108617684036468
95386922 0.0020275092806809184 0.004065488909096553
95416684 0.0020590126420814044 0.004025571504719423
95446446 0.00208858117120237 0.003984561508295799
95476208 0.0021098486349228423 0.0039451850784573885
95505970 0.002155911701830256 0.003896726587561251
95535732 0.002190285974794007 0.0038491445694650408
95565494 0.002231958300466699 0.003794435416149545
95595256 0.0022860980622797515 0.0037360806220045994
95625018 0.002334531308903115 0.0036736920626589003
95654780 0.0023872456160397982 0.003605077728990877
95684542 0.002442352241488776 0.0035340007123659616
95714304 0.002486002289100353 0.0034693834937819805
95744066 0.002534055978927313 0.0033915919521057985
95773828 0.0025753947066596734 0.0033224665940024497
95803590 0.002630993751343931 0.0032346329073938075
95833352 0.0026738620067204054 0.003152537483469432
95863114 0.002684821315698702 0.003057354097647966
95892876 0.0026895704838015336 0.002952128987236135
95922638 0.0027019330739588465 0.0028490471157623545
95952400 0.0027087962776466473 0.0027484395549685343
95982162 0.0027052773988839028 0.0026473202901205013
96011924 0.0024446183716520975 0.0026747257024708603
96041686 0.00271446413403716 0.002431506478443215
96071448 0.0027097059641037393 0.002324944044801806
96101210 0.0027212571315751184 0.002204618260963691
96130972 0.002401897274562194 0.002231700753024519
96160734 0.002730809903319931 0.00204217588116612
96190496 0.0027231973853298935 0.001972426046182368
96220258 0.0027501267062585142 0.0018699066670148509
96250020 0.002774499784683132 0.0017487138680404768
96279782 0.002764354263131532 0.0016816891187202774
96309544 0.0027700438875765555 0.0015897116214369645
96339306 0.0027647885773162653 0.0014899796011473292
96369068 0.002759052082290979 0.0013859534362526216
96398830 0.0027644090053199283 0.0012746367850376933
96428592 0.002771746136194044 0.0011035126152111271
96458354 0.0027402874789141797 0.001028140615664101
96488116 0.0027998114066999807 0.0006291576485072675
96517878 0.002714134821599299 0.0007730815844811848
96547640 0.0026857146493240716 0.0006501189694723073
96577402 0.0026691717161226695 0.0005022803431768485
96607164 0.0026237548240212872 0.0003742663644864542
96636926 0.002527459009855395 -6.07760235621279e-05
96666688 0.002518923392343077 0.0001141510189246384
96696450 0.0024456457638507164 -1.6615369298835404e-05
96726212 0.002355679922325507 -0.00012720197512432367
96755974 0.0023479277983989395 -3.185010499037139e-05
96785736 0.002174828810907425 -0.0003644097331776395
96815498 0.002190378330329649 -0.00026888173712512407
96845260 0.0019610668866623586 -0.0005803111202576433
96875022 0.001851766462079118 -0.0006779928503983953
96904784 0.001744736665575612 -0.0007911791370392363
96934546 0.0016232588240352606 -0.0009075351350484722
96964308 0.0015244400931027553 -0.000993116838367313
96994070 0.001427835033663164 -0.0010928110942102604
97023832 0.0009863760975791294 -0.0012683887949158134
97053594 0.0011969628991915 -0.0012901192325039904
97083356 0.001091213567019127 -0.0013874600990241462
97113118 0.0013078879661623517 -0.0014202163477416735
97142880 0.0008337655486137353 -0.0015641235489011794
97172642 0.00028939394727278683 -0.0015879803434765865
97202404 0.0005848820224383229 -0.001719365828416432
97232166 0.00041961042956114154 -0.0018038281676501585
97261928 0.0002789884074402896 -0.001877838948546379
97291690 0.00010549000306028597 -0.0019420805339282086
97321452 -6.121434215643418e-05 -0.002003183000198335
97351214 -0.00020476574349877175 -0.0020649532621347406
97380976 -0.0003850937139148177 -0.002102416837295564
97410738 -0.0005757369360009592 -0.002125838945743745
97440500 -0.0007454769175921439 -0.0021560136225824748
97470262 -0.0013676663683688656 -0.0017425329477896688
97500024 -0.0011077726282849674 -0.002185510604654566
97529786 -0.0012697308185919795 -0.0022038602840812934
97559548 -0.001867843793036097 -0.0016566262048727913
97589310 -0.001639553720639593 -0.0021922144814480768
97619072 -0.0018511132235409693 -0.0021115225409738684
97648834 -0.0019850102891588737 -0.0021671014988465655
97678596 -0.0021758668398455007 -0.002114456857315388
97708358 -0.00265015582397035 -0.001376814073548094
97738120 -0.002524671998093189 -0.0020358797541721613
97767882 -0.002685589270390177 -0.001988982202080175
97797644 -0.0025226189580375147 -0.002624213474284798
97827406 -0.0029984674334033535 -0.0017777103949174582
97857168 -0.0031735991800738157 -0.0015957485854200296
97886930 -0.0033029618059785236 -0.0014424452417498865
97916692 -0.003265781132219952 -0.002095390435447559
97946454 -0.0035528018919092734 -0.0011162755279248513
97976216 -0.003568477137904675 -0.0017799461380194532
98005978 -0.003650216080404092 8.705945990068727e-06
98035740 -0.0038076476351920365 -0.0006169135634085019
98065502 -0.003908824294179003 -0.0005325495592960526
98095264 -0.004011785691536374 -0.0005254938998482366
98125026 -0.0041146236699733 -0.00046695176794012247
98154788 -0.0040282610707479795 0.0003798116009326698
98184550 -0.00432801938489328 -0.00042596558323342856
98214312 -0.004436904119713308 -0.0004117064414245888
98244074 -0.0043025353325703165 0.0004794528914895695
98273836 -0.004657947711261412 -0.00043610848724235035
98303598 -0.004754132640881012 -0.00038705358707947276
98333360 -0.0048445508939763855 -0.00037655699648675255
98363122 -0.0049036671852301225 -0.000348117780167924
98392884 -0.004935485463988563 -0.00023822538233625158
98422646 -0.0049529635554020806 -0.0001593950470095431
98452408 -0.005012338586601792 -0.00016137261277272195
98482170 -0.0049782654315403616 3.131102582355209e-05
98511932 -0.005060167695936127 -6.000932463580343e-06
98541694 -0.004635925226565479 0.001013657994370805
98571456 -0.005069452677721878 0.00018904589143549068
98601218 -0.005402729758329016 -0.000679639946331923
98630980 -0.005089992172692074 0.000378766051839871
98660742 -0.00510367398501215 0.0005132268644887346
98690504 -0.004667017832016016 0.0014100847754914105
98720266 -0.0055356590720148 -0.00010111898144858419
98750028 -0.005141016297148877 0.0008825630063000575
98779790 -0.005150102975359947 0.0009818157795309988
98809552 -0.005180647995645605 0.00106532274029395
98839314 -0.005153533896031374 0.0012139109719062507
98869076 -0.005179676376503518 0.0012753401829859409
98898838 -0.005659299104417694 0.0006736556425762522
98928600 -0.00518080917257538 0.0014814571145529652
98958362 -0.005726916013231855 0.0007987401164915528
98988124 -0.005270939577463861 0.0015511362576766797
99017886 -0.0052897916520974015 0.001667365468944799
99047648 -0.005328740999785729 0.0016586025018851351
99077410 -0.005325331206820566 0.0017640960777913163
99107172 -0.005339063001333449 0.0018300644347562219
99136934 -0.005414810017205309 0.0018252234617035239
99166696 -0.005440585779962084 0.0018748433248062897
99196458 -0.005489937349248939 0.001892617274731533
99226220 -0.005423128100702629 0.0019622543055613866
99255982 -0.005311319933046498 0.00201744237784517
99285744 -0.005387808890856226 0.002037262600362816
99315506 -0.00540942567432952 0.00204038522978704
99345268 -0.005438144386686644 0.00202499679265356
99375030 -0.005384541200807722 0.0021031348946902975
99404792 -0.005389706373798783 0.002084859559810241
99434554 -0.005396083142860069 0.0021016085644640367
99464316 -0.005342736385631178 0.0022314539216662273
99494078 -0.005331575788480291 0.0023147766572894682
99523840 -0.005223051815373577 0.0024943024435909503
99553602 -0.005167462859225131 0.0026116060483091282
99583364 -0.005710266568943331 0.0021973375315441695
99613126 -0.0044413342839978035 0.003316348011939113
99642888 -0.004969636807401899 0.002962325173292397
99672650 -0.004896739578420121 0.0030620985360024404
99702412 -0.005433202583947597 0.0027193546513882795
99732174 -0.004787517504209316 0.0032277182007536816
99761936 -0.004660924577127904 0.0033200941985872356
99791698 -0.004929350741057 0.0031475631451811973
99821460 -0.0049075342712668725 0.0031661095553301628
99851222 -0.005002267020869673 0.0031002847881054316
99880984 -0.005599426623950965 0.0026689101892306976
99910746 -0.0050151568527435075 0.0030991812615903634
99940508 -0.005678221060954788 0.002610101660971654
99970270 -0.0050841985933011095 0.0030384553780060304
100000032 -0.005122588725286839 0.003024168323751048
100029794 -0.0051106535641430645 0.0030552179103072374
100059556 -0.00510204095515373 0.0030890557770871783
100089318 -0.00508903762548094 0.003132187472862446
100119080 -0.005071362604824265 0.0031605616016556785
100148842 -0.005069286838249054 0.003207926174102672
100178604 -0.005057970685760648 0.0032392043758075672
100208366 -0.005053301424223609 0.0032809484212675535
100238128 -0.005033333068949418 0.0033146507985653832
100267890 -0.00502397490884655 0.0033490024587334456
100297652 -0.005026987857863385 0.003375503714892591
100327414 -0.005020170541252529 0.0034006908468908917
100357176 -0.005025406949069148 0.003417641171948457
100386938 -0.005032407797467458 0.0034506002139446388
100416700 -0.005025774917828671 0.0034713447630485483
100446462 -0.005027509851959672 0.003493517809955141
100476224 -0.005033131069981314 0.0035162110480149405
100505986 -0.005035866603162186 0.0035393885770035535
100535748 -0.005036175249440082 0.003564678869339765
100565510 -0.005059232556954065 0.0035850197393368895
100595272 -0.005102125914754638 0.0036333094510125766
100625034 -0.005156667138624778 0.0036707245052395097
100654796 -0.005212762635506442 0.0037131371189584325
100684558 -0.005264868105841308 0.003753932244220012
100714320 -0.005320243978589891 0.003793781906401614
100744082 -0.005373001417007752 0.003835197571093997
100773844 -0.005438609833337212 0.003878292334588002
100803606 -0.005495665996691273 0.003914623168650545
100833368 -0.005556590005997956 0.0039652859979686424
100863130 -0.005500330962324594 0.003986125786312336
100892892 -0.00545584584526723 0.0040061475822527086
100922654 -0.005401510888517438 0.004028970632232164
100952416 -0.00534944733126058 0.004050633286775186
100982178 -0.005299794299686849 0.004070265317326025
101011940 -0.005248183267234024 0.004087980918945651
101041702 -0.005198550954623416 0.0041025168819771455
101071464 -0.005156342255630868 0.0041256659064610795
101101226 -0.005101229740217311 0.004141069058357565
101130988 -0.00508484792295655 0.004151906588053607
101160750 -0.005086755190875266 0.004163054653942866
101190512 -0.005091379032377551 0.004169042213535522
101220274 -0.005091294873447812 0.004181166264379786
101250036 -0.005090076953154074 0.0041894929483472934
101279798 -0.005092261218654784 0.004194820354954915
101309560 -0.0050874286715047005 0.004205273554167766
101339322 -0.005093197605454269 0.004208698769481319
101369084 -0.005100011074230993 0.004220667086609541
101398846 -0.0050792157091821225 0.004257900922065987
101428608 -0.005035533666944617 0.004340626946081849
101458370 -0.0049889827664912935 0.004429707456375777
101488132 -0.004940319013706773 0.004505008597171837
101517894 -0.004889380076182367 0.004593670645450733
101547656 -0.004833613282972123 0.004679001718859432
101577418 -0.004782616539106192 0.004755896865270108
101607180 -0.004728451018432708 0.004835918924856334
101636942 -0.0046640620873273 0.004914970234534935
101666704 -0.004601812339546611 0.004988281072244777
101696466 -0.004684526806721836 0.0049417658343310095
101726228 -0.004763767812755767 0.004889463677393712
101755990 -0.00483901745762349 0.004832178072987302
101785752 -0.004916003361775249 0.0047693816669372785
101815514 -0.004980324224562183 0.004714441045251798
101845276 -0.005052365627235748 0.004648995985857376
101875038 -0.005114314650470047 0.004577352443001488
101904800 -0.005180627075437456 0.004506650714158834
101934562 -0.0052422917646958505 0.004435568296944294
101964324 -0.005211038109910572 0.004457427986297248
101994086 -0.005136986695142687 0.004534473442062288
102023848 -0.005090446903870851 0.004596313843249818
102053610 -0.005004835663997497 0.004665195150305677
102083372 -0.004926381902643131 0.004735546145899238
102113134 -0.0048463868098741975 0.00480144287854095
102142896 -0.004760934970149556 0.004856477192716043
102172658 -0.004678607400983388 0.0049252574042124775
102202420 -0.004497005108430393 0.004989120080127501
102232182 -0.004534128722945609 0.005030018098919821
102261944 -0.004616508106176294 0.00505211432351417
102291706 -0.004704261266141282 0.00508112965380494
102321468 -0.004794003881262395 0.005103118202893712
102351230 -0.004878863449948926 0.0051203584523381515
102380992 -0.0049775960134308675 0.005133708036831894
102410754 -0.00507084263489593 0.005153880803484208
102440516 -0.005166218456773107 0.0051690934687833616
102470278 -0.005267543664365941 0.005178853062293443
102500040 -0.005374450442950284 0.005190338118567976
102529802 -0.0053219519824925 0.005190401553974357
102559564 -0.005263401492835304 0.005258185024877347
102589326 -0.005199601243478871 0.005294602844047257
102619088 -0.00514301267311723 0.005327474794593867
102648850 -0.005086015374878468 0.0053678815978005995
102678612 -0.0050266373854536426 0.0053937888663595345
102708374 -0.005071585357891806 0.005412219774935625
102738136 -0.004911776184388168 0.0054583219714994385
102767898 -0.004854764407063641 0.005483193650512916
102797660 -0.004815353008595421 0.005486615907467912
102827422 -0.004791629112696311 0.005462469721543589
102857184 -0.0047740663396260985 0.005443201006479542
102886946 -0.004757374785670266 0.005424565847908291
102916708 -0.0047336187567855875 0.005409965182580043
102946470 -0.004712961276545431 0.005390856842427378
102976232 -0.004690437864419959 0.0053708018376151315
103005994 -0.004667364362868364 0.005351594379300596
103035756 -0.004647921983812072 0.0053370580644110915
103065518 -0.0046326306411996546 0.005331704580498407
103095280 -0.004637391848315604 0.0053664759805068804
103125042 -0.0046355244376545925 0.005400866463217683
103154804 -0.004701478727820162 0.005430802283003545
103184566 -0.004637653714185002 0.005472262970647475
103214328 -0.004635869138479662 0.005504206721700644
103244090 -0.004636100391978163 0.005538971917489471
103273852 -0.004643161246861757 0.0055681316982742176
103303614 -0.004640098841088617 0.005608123477380935
103333376 -0.004640884998837409 0.005639649665608881
103363138 -0.004550630233852098 0.005648392315570235
103392900 -0.0044511956137583426 0.005660782668033407
103422662 -0.0043571836768708004 0.005674595641213198
103452424 -0.004267452519487898 0.005681547882027282
103482186 -0.004169566176700012 0.005688864940906295
103511948 -0.004086156759316167 0.005691744841842937
103541710 -0.003994155202677688 0.005692960264554863
103571472 -0.0039014565851172105 0.005690119006648876
103601234 -0.0038116927830817143 0.005693900950026638
103630996 -0.0038444648645962766 0.005685108719961725
103660758 -0.0038578653915727324 0.005684533262080711
103690520 -0.0038962242644196648 0.005677058474610535
103720282 -0.0039429351580560126 0.005672319280307664
103750044 -0.003982315451397398 0.005662078172567766
103779806 -0.004023040475946619 0.005652516045051273
103809568 -0.004063624318478744 0.005644798413643752
103839330 -0.0041095571777092455 0.00563504223522883
103869092 -0.004150322083628308 0.005619676516695102
103898854 -0.004186082802664619 0.005619613642243719
103928616 -0.004223896112652422 0.005646268220943476
103958378 -0.004264254097945185 0.005667758496250328
103988140 -0.004267456659905901 0.0056950783275185705
104017902 -0.004332361479270571 0.005717246865109417
104047664 -0.004376560517729192 0.00573903631416524
104077426 -0.004426456716121707 0.005752092898734204
104107188 -0.004463932607185451 0.005783728692689117
104136950 -0.004500453442805244 0.0058049246305937685
104166712 -0.004548624823187794 0.005827119131175802
104196474 -0.004531654766090755 0.005872217050726004
104226236 -0.004519144257787513 0.005925416604647102
104255998 -0.004505964094563199 0.005974829464722979
104285760 -0.004494280994012545 0.006021656737061224
104315522 -0.004480920691862678 0.006074959860988743
104345284 -0.004461714457959559 0.006123591444014771
104375046 -0.004447148720881237 0.006172127647662731
104404808 -0.004430301828763695 0.0062238843678816035
104434570 -0.004416825804392628 0.006277912367420125
104464332 -0.004399869224564882 0.0062571483128115255
104494094 -0.00438150023093576 0.006200198682998493
104523856 -0.004361582489899068 0.006144970944139024
104553618 -0.0043456682632872605 0.00608811678386627
104583380 -0.004333196980058804 0.006035320292892837
104613142 -0.004316350465159323 0.005983515271608887
104642904 -0.004295560074890475 0.005931226042599631
104672666 -0.004302582717085532 0.005874002506839827
104702428 -0.004258436665316538 0.005829259299199412
104732190 -0.004239581947571141 0.005820898613212196
104761952 -0.004222183425307279 0.005898494556454497
104791714 -0.004201784487550889 0.00597486851458167
104821476 -0.004184844862317681 0.006053470605062812
104851238 -0.0041640962637621666 0.006128360755697437
104881000 -0.004139191053608378 0.006206786997604119
104910762 -0.004114011591265173 0.006283209948880003
104940524 -0.0040869590264584294 0.006366210998392498
104970286 -0.004060489453577252 0.006449159661273341
105000048 -0.004029195154019991 0.006529014063809055
