# HZ S RI R 50
90000000 -0.0009042815954157984 0.005494580528593992
90029762 -0.0008433598134834231 0.005528070222796865
90059524 -0.0010869626831714317 0.005552313129839204
90089286 -0.0009515434131952347 0.00559027328725835
90119048 -0.0010912850866866435 0.005611310088964723
90148810 -0.0010096407259152537 0.005658191754287646
90178572 -0.0010407670910752395 0.0056902604873548005
90208334 -0.0010182630894614506 0.005725912203911135
90238096 -0.0012672846271761535 0.005747923804673512
90267858 -0.0011376653662960256 0.005790359030374929
90297620 -0.001094217760459362 0.005766786728495712
90327382 -0.001014336099806884 0.005722701655586344
90357144 -0.0010745307388851059 0.005684965880736977
90386906 -0.000995530651254796 0.005642773956305993
90416668 -0.001175731732934369 0.005591057679524169
90446430 -0.0009939066310387511 0.005557132006387651
90476192 -0.0009187838367240288 0.005518184581002996
90505954 -0.0009120912393854514 0.005478904966596583
90535716 -0.0009199452079782017 0.005433990454891493
90565478 -0.0008429567916146996 0.005412265891731285
90595240 -0.000854878906113843 0.005428177015849312
90625002 -0.0008211440792127089 0.005440968212118578
90654764 -0.000738863022577831 0.005458557315418766
90684526 -0.0007023626269369259 0.005475884545525064
90714288 -0.0007122238581359034 0.005488063747451927
90744050 -0.0006771525523604659 0.005502274363720835
90773812 -0.0005936368323851925 0.005515526122597138
90803574 -0.0006011439309964293 0.00553071893482853
90833336 -0.0005182299028470835 0.005542264254005012
90863098 -0.0004946393652579136 0.0055197870433542785
90892860 -0.0005182726241098417 0.005496957962673704
90922622 -0.0004474824842476669 0.005472194894054747
90952384 -0.0004273006720680008 0.005450382831531396
90982146 -0.00044671745201029715 0.0054274957264380435
91011908 -0.0003798486342401349 0.005406462644743469
91041670 -0.00040218706731555225 0.005384375746780971
91071432 -0.00038032679993594485 0.005362801565964403
91101194 -0.000482138984582778 0.005342155774743623
91130956 -0.0003278867878273206 0.0053523427138986255
91160718 -0.00039969467928134826 0.005384345242204493
91190480 -0.0004307912551226899 0.005413338428433756
91220242 -0.0005895581189389978 0.005448789629186486
91250004 -0.0004962805298647096 0.005476653637940785
91279766 -0.0006581634698372468 0.005505582673684852
91309528 -0.0005245920729818486 0.0055387102704840974
91339290 -0.0006029199450444452 0.005568219122666528
91369052 -0.0005988833072873809 0.005600907937243274
91398814 -0.0007878052412207425 0.005605601591238625
91428576 -0.0006594825298472909 0.0055875436592268055
91458338 -0.0006169346562450531 0.005564860044195366
91488100 -0.0006520375775430937 0.00553872766175011
91517862 -0.0006494532885542286 0.005514832634599224
91547624 -0.0006058457833495797 0.005492930737482257
91577386 -0.0006015867831047786 0.005469755209152195
91607148 -0.0006361323273890343 0.005441971346366733
91636910 -0.0006321497564838942 0.0054227964066065545
91666672 -0.0005888293189826703 0.005398037164840413
91696434 -0.0005570077932647921 0.005414742311825071
91726196 -0.0004464673846442507 0.005433757428842474
91755958 -0.0003751007526863986 0.0054474363738378
91785720 -0.00033802325303423784 0.005462347173596454
91815482 -0.00022652703314280325 0.005474063096263377
91845244 -0.00014998350959515908 0.005483599471583249
91875006 -0.00010856395493867203 0.0054929445963287716
91904768 -0.000140898975061114 0.005502568771282345
91934530 4.6222298705277044e-05 0.005502607443250949
91964292 6.992422897236969e-05 0.005521749592248962
91994054 0.00010414223973515192 0.005544974768836889
92023816 -3.561998732927675e-05 0.0055708972206418355
92053578 6.803508027386483e-05 0.005593236156271072
92083340 6.913341716197649e-05 0.005613833347195786
92113102 0.00010176422617633543 0.005637163526002267
92142864 6.997293139972326e-05 0.005662168372837465
92172626 0.00010255666493474675 0.0056842114759670815
92202388 -3.320905237510162e-05 0.005710640587121395
92232150 6.046512005167125e-05 0.005707948421579497
92261912 -5.8712854375660555e-05 0.0056577621175599455
92291674 5.676239862366871e-05 0.005605378349613642
92321436 6.8084672350620095e-06 0.005554002243565258
92351198 1.9897853471684303e-05 0.005505521555535692
92380960 -2.3500768609265174e-05 0.005453689532978889
92410722 -3.918910083309663e-05 0.0054039749419409755
92440484 -2.1221755856742375e-05 0.005356623989426217
92470246 -3.445139823070682e-05 0.005307393429228612
92500008 -7.467786513840749e-05 0.0052583596510001555
92529770 -8.034412395390331e-05 0.005280333433750229
92559532 -5.485228082056899e-05 0.005299328893662937
92589294 -8.895764273736975e-05 0.0053233305914233125
92619056 -6.512002283844381e-05 0.005342850887551415
92648818 -7.03057963679786e-05 0.005366491732628135
92678580 -0.00010304286693377037 0.005383867159135064
92708342 -7.895776272844556e-05 0.005404564616962033
92738104 -8.407659213933129e-05 0.005430491705539225
92767866 -0.00011717041631713526 0.005450580381802717
92797628 -7.20079049727994e-05 0.005465574110998172
92827390 -6.56482766341266e-05 0.005473374580936277
92857152 -3.4107306447543215e-05 0.0054870759709116325
92886914 -8.122978765916482e-05 0.005491085109620981
92916676 5.8957327113274515e-05 0.005507400933514616
92946438 6.310276175178328e-05 0.005516100828511513
92976200 9.781391364077544e-05 0.005525159554849687
93005962 5.478312384108351e-05 0.005534227488899747
93035724 0.0001663098683344759 0.005544935220059838
93065486 0.0001411932602604646 0.005549239033271196
93095248 0.0003083807280775229 0.005544948926837666
93125010 0.0003654433574982313 0.0055353987104089074
93154772 0.00045867564145394977 0.0055307410224597455
93184534 0.0004742333915814179 0.005509058115566129
93214296 0.0006315228601739394 0.005495347733697316
93244058 0.0006424324317682881 0.005479112368701931
93273820 0.0007653947270226202 0.005467979409443178
93303582 0.0008613338390222782 0.005435938611451912
93333344 0.0009835141085784089 0.00540683586909499
93363106 0.0009161435195722627 0.005422427150799006
93392868 0.0008572595346140833 0.005433490472294079
93422630 0.0008087431994296956 0.00544076667298535
93452392 0.0007781266523681082 0.00544490107564503
93482154 0.0007058840679249766 0.005451258009399639
93511916 0.0006758585011948756 0.005453554043880139
93541678 0.0006228820746644494 0.005455444902241774
93571440 0.0005492648201087581 0.005456801013926501
93601202 0.000537942536416566 0.005455406894822842
93630964 0.0004475238758938995 0.005581656161512276
93660726 0.0005874743896247948 0.005441424847068309
93690488 0.0006691208011750358 0.005432235040664084
93720250 0.0007085617243738908 0.005425251247922025
93750012 0.0007707210830205155 0.00541707907634782
93779774 0.0008545706749486098 0.005400577415599214
93809536 0.0008422109478099065 0.0053893514098769
93839298 0.0009600137470032914 0.0053756917348417345
93869060 0.0010233441924298087 0.005362035011014646
93898822 0.001090223924385415 0.005342668743588207
93928584 0.0010921582859554553 0.0053221620389674075
93958346 0.0011309898773986758 0.005298750516175502
93988108 0.0010832348720905905 0.0052827135067818895
94017870 0.0011592415452191724 0.005254609291614771
94047632 0.0011308137542029506 0.0052367541625499055
94077394 0.0012213012314350167 0.005205416453953829
94107156 0.0012254051461182364 0.005183841622331398
94136918 0.001264050155486828 0.005160432946861366
94166680 0.0012697373715192925 0.005134753756579417
94196442 0.0013051306705250969 0.005389215282821217
94226204 0.0012865081315655404 0.00567307955067111
94255966 0.0013823850152591757 0.0059811260234489206
94285728 0.0013851639735988823 0.0063320076315769745
94315490 0.001398291800808922 0.0067232703861083
94345252 0.0014131625262873144 0.007171416572925901
94375014 0.0013693353541792475 0.007679413639660658
94404776 0.001335286709018919 0.008258414284109993
94434538 0.0012390097290888562 0.008924619828995858
94464300 0.0012564670221792951 0.008644081070540842
94494062 0.0013766886175087677 0.00795011858400528
94523824 0.0014448194065246735 0.00734778418216933
94553586 0.001472919843329631 0.00681969238397246
94583348 0.0015111933035288538 0.006354435053982846
94613110 0.0015141767356458365 0.0059449894592124315
94642872 0.0015171984662266868 0.005576098887083698
94672634 0.0015304827632704287 0.005247981918296427
94702396 0.0015275880644345188 0.004948215333991535
94732158 0.0015225563967398938 0.004742131890209647
94761920 0.001545332256451231 0.004680873634163106
94791682 0.0015419881828869961 0.004621374866743636
94821444 0.0015939133899394084 0.004561554419757573
94851206 0.0015906075806191252 0.004499020453698196
94880968 0.0016501646320805521 0.004435213043945171
94910730 0.0016482396847505817 0.0043731027027223545
94940492 0.0016944406248337364 0.004310434671018702
94970254 0.001686879934482806 0.004252528160429367
95000016 0.0017322360382546287 0.0041860324323444486
95029778 0.001731522391664939 0.004189063416508505
95059540 0.001772090132031353 0.004182310797650154
95089302 0.0017960150746283837 0.00418091969184499
95119064 0.0018072603091251133 0.004180399770999299
95148826 0.0018210415042610587 0.0041739088509685175
95178588 0.0018460349868496676 0.004171602915120016
95208350 0.001882273072384421 0.004158093221225455
95238112 0.0018973337569631152 0.00415602953021969
95267874 0.0019267417421815313 0.0041416062335681795
95297636 0.001945497546575018 0.004120039435399732
95327398 0.001993799271562526 0.004079031169651123
95357160 0.0020220952194462695 0.0040389136791132456
95386922 0.0020594638917285036 0.00399895916377964
95416684 0.0020906471368256846 0.003954961689226575
95446446 0.002121052283684241 0.003915036558313989
95476208 0.0021577601182348654 0.003870046871336107
95505970 0.0021859803214999115 0.0038212941046023427
95535732 0.0022143960478513292 0.003776433918879491
95565494 0.002260649335121694 0.003719989182575991
95595256 0.0023123673854995325 0.0036539436629650633
95625018 0.002360208846829217 0.0035848636252468597
95654780 0.0024097748393047615 0.0035228589120436106
95684542 0.002461987074928669 0.003449813512267199
95714304 0.002507483870361969 0.0033779397591669137
95744066 0.002558175291876672 0.003299049955131074
95773828 0.002599463946618284 0.003222226071418034
95803590 0.0026498838469967635 0.003140937454115776
95833352 0.002693346868866647 0.0030522680342257233
95863114 0.002697137409742237 0.002954907190581774
95892876 0.002704939839471888 0.0028511215585300606
95922638 0.0027103654575941646 0.0027448541912868172
95952400 0.0027150483296975747 0.0026422093317400412
95982162 0.002714927765920353 0.002537571683281816
96011924 0.00244910387398187 0.002589116518341777
96041686 0.0027271685157231784 0.002326448714153277
96071448 0.0027371590598980664 0.0022087898831312474
96101210 0.0027174689970171453 0.0021106912511971087
96130972 0.0024875257665822213 0.0021918585321807557
96160734 0.002744006071227113 0.001929705423158106
96190496 0.0027500832154888633 0.001964008349182436
96220258 0.0027424386334220434 0.001766692603438602
96250020 0.002769930426231597 0.001640857798275363
96279782 0.0027524401954484665 0.0015687919017375403
96309544 0.002759104899736101 0.0014695492952099807
96339306 0.002752985637222391 0.0013648631800567607
96369068 0.0027494935026131386 0.0012538065826926707
96398830 0.0027531303238352237 0.0011312211111586385
96428592 0.0027397173239394356 0.001011944459899103
96458354 0.0027248400313255685 0.0008899745551597639
96488116 0.002755397042573962 0.00047096233824444006
96517878 0.002679286783621505 0.0006298819668196429
96547640 0.0026459824440369724 0.00047544937094985435
96577402 0.002615125647812526 0.00035048018028920774
96607164 0.0025746261579313906 0.00021122435962586493
96636926 0.002447074147303884 -0.00018750376309686431
96666688 0.002469624287922391 -5.312403084409036e-05
96696450 0.0023775176688315422 -0.00016823665162560015
96726212 0.0022907599965037956 -0.0002939637712625954
96755974 0.0023043327772373856 -0.0001918364124784737
96785736 0.0020886096223724907 -0.0005248595779382606
96815498 0.0021462894858316666 -0.00043687762925369945
96845260 0.0018777244332561429 -0.0007448579747731574
96875022 0.0017624500886316281 -0.0008575523708400727
96904784 0.0016667124533676465 -0.0009535911320248012
96934546 0.0015096740602801176 -0.001055550307008266
96964308 0.0014290823986686312 -0.0011597146908542205
96994070 0.0013185454634244069 -0.0012619734589856362
97023832 0.0008361914461496005 -0.0014010485840746949
97053594 0.0010714717967135504 -0.001455439777390624
97083356 0.0009672775239684543 -0.001547104337302909
97113118 0.0012009498077201243 -0.001595069147618768
97142880 0.0006884056221457647 -0.0017131587126096369
97172642 0.00011962185802024464 -0.001706432462714051
97202404 0.00042690084359023637 -0.001871343332564998
97232166 0.000268135282249712 -0.0019535281791882293
97261928 0.00010485933639439271 -0.00201997490262839
97291690 -5.9358929068932494e-05 -0.0020872715168587584
97321452 -0.00022824753676704742 -0.002128296398507518
97351214 -0.0003969255914395929 -0.002182806912620339
97380976 -0.0005757035875141766 -0.0022270448593759325
97410738 -0.0007705766998255209 -0.002251240201709923
97440500 -0.0009545294182126403 -0.0022521833104150444
97470262 -0.0015762448995982174 -0.0017919878153937786
97500024 -0.0013117926031080043 -0.0022659486742757392
97529786 -0.001483513273498509 -0.002285599754054197
97559548 -0.0020849425088551162 -0.0016582045505294444
97589310 -0.001862766725190089 -0.0022265253564706586
97619072 -0.002078932025505119 -0.0021400002546415665
97648834 -0.002212131854430512 -0.0022049775978368103
97678596 -0.002408826959888742 -0.0021400818753848647
97708358 -0.0028511008558271093 -0.0013510563800662953
97738120 -0.002755860239929627 -0.002044245311212757
97767882 -0.0029093961331565182 -0.0019904818427793724
97797644 -0.0027622326515216755 -0.002664533978917206
97827406 -0.003235739373220512 -0.0017570710638840495
97857168 -0.003381182051740046 -0.0015741132378919095
97886930 -0.0035319403308667636 -0.0014023645127721998
97916692 -0.0034961130546480694 -0.002095712216959982
97946454 -0.0037468803724166728 -0.0010858966854738424
97976216 -0.003795265042498574 -0.0017601593063100158
98005978 -0.003806008196385988 8.998733442007627e-05
98035740 -0.003996176077029063 -0.0005562318141747468
98065502 -0.004075442754961664 -0.00046657961281372187
98095264 -0.0041853107105312235 -0.0004465708054365812
98125026 -0.004296841813847602 -0.0003905915404281937
98154788 -0.00417270202373418 0.0004778039155769684
98184550 -0.004510922434649606 -0.00034521074090025666
98214312 -0.004622164349399559 -0.00032696177791914367
98244074 -0.004447495183357491 0.0005623819404309427
98273836 -0.004838396216394006 -0.0003444474565014766
98303598 -0.004923628858396318 -0.00029694939505835096
98333360 -0.005031146623852695 -0.00028758807331405255
98363122 -0.005067294343265662 -0.000253621126300753
98392884 -0.005093130270256408 -0.0001249550108843157
98422646 -0.00514087380731733 -0.00010508765716528106
98452408 -0.0051540682681959545 -1.2051708219892234e-05
98482170 -0.005163353694458699 0.00010638321982350695
98511932 -0.00520307188142844 0.0001228194799524839
98541694 -0.004771635856158182 0.001097135869177178
98571456 -0.005207495138663721 0.0003154716677167203
98601218 -0.005570992178546624 -0.0005238350531044065
98630980 -0.005226236905817496 0.000491273678053498
98660742 -0.00524071826086581 0.0006226231415784872
98690504 -0.004755102717760289 0.001517224087448943
98720266 -0.0056917707611353835 -3.4924214733215054e-06
98750028 -0.005264349343352937 0.0009838459464896307
98779790 -0.0052697894782752636 0.0011014731292275062
98809552 -0.005297907608682776 0.0011627704193017101
98839314 -0.005260559277013398 0.0013419381271504794
98869076 -0.005287848013368945 0.0014029728158148958
98898838 -0.005773462522322659 0.0007979082242021732
98928600 -0.005278877700016515 0.0016062316867606976
98958362 -0.0058561680249027475 0.0009351912617125963
98988124 -0.005363634237998005 0.0016688516775319306
99017886 -0.005379964094090888 0.0017696269434231086
99047648 -0.005430825581182709 0.0017696505588945671
99077410 -0.005405945772634933 0.00187304338626554
99107172 -0.005431999066677768 0.0019289779591348713
99136934 -0.005496574118073368 0.0019326168718668088
99166696 -0.005461082867840572 0.0020478779655310237
99196458 -0.005440040598314208 0.0020761037008577513
99226220 -0.005468273196383545 0.002097130594994283
99255982 -0.005626428511954071 0.001994377254822075
99285744 -0.005523226588989641 0.002106168474692528
99315506 -0.005543302985337432 0.0021056332871014455
99345268 -0.005471352040419284 0.002158148959022156
99375030 -0.005418637161648188 0.0022220888210964275
99404792 -0.005459706937791792 0.0021934017168515683
99434554 -0.005481709949710946 0.0021969523307415187
99464316 -0.00536385260026936 0.002345320845553704
99494078 -0.005388306812011942 0.00242098489971476
99523840 -0.0052749096164273245 0.0025882010585083094
99553602 -0.005210799900778282 0.002714657683966061
99583364 -0.005737428590806873 0.0023372026291130555
99613126 -0.004408848556524323 0.003408915624169803
99642888 -0.005002172262471631 0.0030627098652565967
99672650 -0.004933449132891054 0.003157773835301309
99702412 -0.005715714101089935 0.002872553019718004
99732174 -0.004757643919752525 0.0033408396545205146
99761936 -0.004688694014943933 0.0034112100920848532
99791698 -0.004954350949166553 0.0032470044099141967
99821460 -0.004933521947167804 0.003257978873554712
99851222 -0.005033670665179846 0.0031963422796608097
99880984 -0.0056380280060849206 0.002778057509550637
99910746 -0.005042018233507893 0.003194043078745037
99940508 -0.005718831187797035 0.002718784593659117
99970270 -0.005115545263117063 0.0031342930258428693
100000032 -0.005159379873697964 0.003122950623498025
100029794 -0.005140619180373096 0.0031558484133057153
100059556 -0.005135226157639966 0.003193851226383797
100089318 -0.005121389194658906 0.003232075520384864
100119080 -0.005106642047575783 0.003267482492833486
100148842 -0.0050966528265344955 0.0033024437692293807
100178604 -0.005077218687281116 0.0033335707377338927
100208366 -0.005054288703323434 0.003378175216731206
100238128 -0.005050776965437067 0.0034074451180525203
100267890 -0.005035290084750185 0.003446867487794132
100297652 -0.005029998028728924 0.0034592423495108365
100327414 -0.00502802632688239 0.0034942919692359763
100357176 -0.005032309337665526 0.0035134389503012325
100386938 -0.0050393434648925255 0.003538909506118134
100416700 -0.005035649286598601 0.0035605459901502027
100446462 -0.005033177327759252 0.0035881342171939384
100476224 -0.005042854156218544 0.0036069583652254635
100505986 -0.00504625908729971 0.0036310942588291717
100535748 -0.005051268978082623 0.0036472873050296273
100565510 -0.005057163894455919 0.003682633420181663
100595272 -0.0051088566015483755 0.0037255608743588745
100625034 -0.005159140114931791 0.0037639043011971226
100654796 -0.00521227116179307 0.003811396124349041
100684558 -0.005263183517398525 0.0038494873211443415
100714320 -0.005321455646321772 0.0038946066646921183
100744082 -0.005371280665292852 0.003928806097023235
100773844 -0.005434907228458737 0.00397668750576516
100803606 -0.005486163811384754 0.004018960275606907
100833368 -0.005560247561860518 0.004056821519556922
100863130 -0.005500035899320738 0.00407820642982116
100892892 -0.005439060049976003 0.004106215519074553
100922654 -0.005393043615460669 0.004122574506554849
100952416 -0.005333664338199626 0.0041430506792173765
100982178 -0.00528000482280819 0.004163528927549083
101011940 -0.0052359608688974215 0.004180371040536256
101041702 -0.0051846282036964375 0.004195421093539684
101071464 -0.005126078961587083 0.004211625443023494
101101226 -0.005076481273742927 0.004226677203273566
101130988 -0.005061718422004396 0.004232764628851084
101160750 -0.005069841747482392 0.00424336618411749
101190512 -0.0050664396313102175 0.004247815793041261
101220274 -0.005067390026867534 0.004261309488394196
101250036 -0.005068852062711578 0.004271980594652907
101279798 -0.005066354141564635 0.0042784726482692215
101309560 -0.00507120227525546 0.004286506716742399
101339322 -0.005067018228667101 0.0042916260072126365
101369084 -0.0050729401692901814 0.004297254628134075
101398846 -0.005055089037246744 0.004336363552199767
101428608 -0.005009556683609534 0.004416617979995258
101458370 -0.004958704507426119 0.004503892861868909
101488132 -0.0049047863014874725 0.004583145533175415
101517894 -0.004852202347634542 0.004665336429025359
101547656 -0.004801054662054261 0.004749200972736463
101577418 -0.004748959823772376 0.004818117434287537
101607180 -0.0046854566787702875 0.004902736349279809
101636942 -0.004625909397363305 0.004983643433761655
101666704 -0.00456680581202901 0.005059128012462628
101696466 -0.004644031092022551 0.005006130228252689
101726228 -0.004723415756045528 0.004955389714625437
101755990 -0.00479602663574986 0.0048904061192467495
101785752 -0.004875885435242447 0.004834850615391066
101815514 -0.004942390391619891 0.0047707637904554215
101845276 -0.005013530749943262 0.004711387066273853
101875038 -0.0050828346714722784 0.004640210606780798
101904800 -0.0051439641120343505 0.004568599159583006
101934562 -0.005206251986414156 0.004502879668122929
101964324 -0.005175408150130132 0.0045207115125606235
101994086 -0.005101858069731139 0.0045999213623238305
102023848 -0.005003718136341775 0.004711501266923433
102053610 -0.004924801328930185 0.004781394888115885
102083372 -0.004852183863878054 0.004838487415475881
102113134 -0.0047624305832594995 0.004904809278823087
102142896 -0.004669297002008264 0.0049650983586656625
102172658 -0.004591316738779095 0.005018096490215947
102202420 -0.004495599492223205 0.005081739797393478
102232182 -0.004467955157917115 0.00512112330444361
102261944 -0.004553521613791421 0.005145996549198147
102291706 -0.004639510619283427 0.005172072778839302
102321468 -0.004725723154367053 0.0051913718376250615
102351230 -0.004824135552267894 0.005209953511505034
102380992 -0.0049152310419913504 0.005226414745089245
102410754 -0.005009853273385764 0.005238246917398064
102440516 -0.005112789984417483 0.005254665144553204
102470278 -0.005205336454900524 0.005256226057508182
102500040 -0.005314580200688608 0.0052703426059072305
102529802 -0.005257666469399946 0.005300874439308363
102559564 -0.005193667380657247 0.005337456351005982
102589326 -0.005137167987643999 0.005370271081373621
102619088 -0.0050784826808215385 0.00540677301593094
102648850 -0.005018894933155521 0.00543263547093902
102678612 -0.004958852983755645 0.005461874498073669
102708374 -0.0049091829573888884 0.00549291277705253
102738136 -0.004849074750287103 0.005521451080019781
102767898 -0.0047861821789563185 0.005552913784315293
102797660 -0.004750469976948549 0.005544904364502238
102827422 -0.0047311552298246635 0.005522416057721656
102857184 -0.004710246894245941 0.005499259711784455
102886946 -0.00469454647878566 0.005479418657453156
102916708 -0.004666792958244067 0.005459403556437015
102946470 -0.004645522937418433 0.0054445302567890375
102976232 -0.004627205967857803 0.005422980881003134
103005994 -0.004610538520418632 0.00540417291019794
103035756 -0.004583158367937532 0.0053810019702304895
103065518 -0.004577604157424965 0.005377597845545915
103095280 -0.004568134291943161 0.005412175622951552
103125042 -0.0045754329639178595 0.005446773864144851
103154804 -0.004574379963039527 0.005477477725850631
103184566 -0.004575674958237737 0.005513298175881907
103214328 -0.0045751967089579975 0.0055443485389471674
103244090 -0.004578712471584319 0.0055733342300611985
103273852 -0.004577165576632777 0.00560996199236598
103303614 -0.004581668302674689 0.005642759077467924
103333376 -0.004579328259062989 0.005678508693167926
103363138 -0.004483449376624434 0.00568881094226019
103392900 -0.004391694476826007 0.005699941767371731
103422662 -0.004295779751263415 0.005705461269325858
103452424 -0.004206514206906001 0.005709232850146803
103482186 -0.004113769612274666 0.005718975265602007
103511948 -0.004024366028979631 0.005719200583551534
103541710 -0.003934600020273479 0.005719712482967142
103571472 -0.0038476191068083443 0.005716776821623233
103601234 -0.0037605681416178986 0.0057190848572927075
103630996 -0.0037560610701148824 0.00571869796582569
103660758 -0.003800599650097871 0.00570581658922796
103690520 -0.003840603467285912 0.005700825744498358
103720282 -0.0038802392007163183 0.005699445986688438
103750044 -0.003924200968993795 0.005687396236042281
103779806 -0.003965709563039017 0.0056781938333156255
103809568 -0.0040131582358146406 0.005670044463499984
103839330 -0.004051346296112604 0.005659792146910805
103869092 -0.0040940245608243045 0.0056440784915977975
103898854 -0.004134598767849294 0.005642962428068457
103928616 -0.004173783914258287 0.005665362565112594
103958378 -0.004210485733657717 0.0056862648314355045
103988140 -0.004247141739259094 0.0057130461565674685
104017902 -0.004285795687857567 0.005733969115380085
104047664 -0.004328049006699346 0.005758159498522992
104077426 -0.004369727879754051 0.00577973779738395
104107188 -0.004409225825851401 0.005799583936454806
104136950 -0.0044519216521740415 0.005818829342246548
104166712 -0.004490911305226518 0.005843232351724978
104196474 -0.004482240675465696 0.005893522141551143
104226236 -0.004468531720960799 0.0059410649972078755
104255998 -0.004454617482456051 0.005989498881397459
104285760 -0.004442203111512278 0.006035157162969828
104315522 -0.004423965303548678 0.006087097111485736
104345284 -0.004409023038015157 0.006132363239901617
104375046 -0.004396333415167091 0.0061879590119092555
104404808 -0.00437957207713406 0.006237857174916279
104434570 -0.004363462447625216 0.00628652317822281
104464332 -0.004347298111835983 0.006271318535989662
104494094 -0.00433021007375031 0.0062077074303614685
104523856 -0.004318745392526576 0.006153549031978903
104553618 -0.004301601830951487 0.006098590487271275
104583380 -0.00428203761036002 0.006042590439490621
104613142 -0.004267162796385387 0.005989202284993271
104642904 -0.004246430270867805 0.005940427793263041
104672666 -0.004232083360500964 0.005888183178016935
104702428 -0.004219172093701968 0.005843479501482989
104732190 -0.004195528318270942 0.005828034295719812
104761952 -0.00417907902266499 0.005901146672741422
104791714 -0.004130776817401431 0.005976482601364784
104821476 -0.004163861824230716 0.006055513153800172
104851238 -0.004148594134587837 0.006132556861518717
104881000 -0.004065380948300614 0.006208749542735145
104910762 -0.004048481533401649 0.006284933216079152
104940524 -0.004025603833022515 0.0063618719494615015
104970286 -0.004054434663398853 0.006452617851372937
105000048 -0.003990488036172471 0.0065312037726174945
