# HZ S RI R 50
90000000 -0.0008650034671843067 0.00549020898686063
90029762 -0.0008375227761814362 0.005525250129368548
90059524 -0.0010778296263538989 0.005550369910821072
90089286 -0.000944301241112715 0.005591584228293123
90119048 -0.0011343565855366697 0.00561483255801043
90148810 -0.001001280283044275 0.0056551842945023
90178572 -0.0011203646257439183 0.005693248213300975
90208334 -0.0010078514714628882 0.0057257781332765946
90238096 -0.0012585513607973663 0.005747330096054058
90267858 -0.0011261051536374284 0.005789286464748424
90297620 -0.0011206874354854166 0.005769628301396136
90327382 -0.0010381574308523964 0.005727481442970008
90357144 -0.001134823863957368 0.00568558415891632
90386906 -0.0009852928080678392 0.005643846931030766
90416668 -0.0011648771604896955 0.005589059022108697
90446430 -0.0009838678135244612 0.005555006477742414
90476192 -0.000911948134853785 0.005513321622156268
90505954 -0.0008864282042296728 0.005471682086813923
90535716 -0.0009116925088057304 0.0054309308018726885
90565478 -0.0008346236386424671 0.005408931503282152
90595240 -0.0008470409830461509 0.005422974852169571
90625002 -0.000812853065198788 0.005438811562763526
90654764 -0.0007286853021997451 0.005454785736418366
90684526 -0.0006938482681271634 0.005469169924863161
90714288 -0.0007031356568325714 0.0054829881506069655
90744050 -0.0006662074267673545 0.005500191473163273
90773812 -0.0005832733773607606 0.005512108843537837
90803574 -0.000590888761688766 0.005523852599786644
90833336 -0.0005098410145057925 0.005538149172619087
90863098 -0.0004840920365476655 0.0055156559154015215
90892860 -0.0005074421719766464 0.005494026158682778
90922622 -0.0005227193430506181 0.005476738231410549
90952384 -0.0004165341254686592 0.005447418726854441
90982146 -0.00043770937974386926 0.005424114665082093
91011908 -0.0003687413928451379 0.005401791144332595
91041670 -0.000391020564583682 0.0053805402521282155
91071432 -0.0003679256401967865 0.005354729742084636
91101194 -0.00047027319774162825 0.005340026339693161
91130956 -0.0003180277672554994 0.005347295262556561
91160718 -0.0003904559433906387 0.005380826352076744
91190480 -0.00042363673801962216 0.005409389467988958
91220242 -0.0005784919491311932 0.005443012698613561
91250004 -0.0004848346256577431 0.005473446941961252
91279766 -0.0006447402654552037 0.00550228237908203
91309528 -0.0005169741632566773 0.005535824295009044
91339290 -0.0005913000238225132 0.0055636708296914975
91369052 -0.0005863529980008157 0.005595585188135168
91398814 -0.0007756093121524808 0.005602267687979293
91428576 -0.0006463087256115888 0.005580688426022692
91458338 -0.0006041122508058811 0.005559288663816056
91488100 -0.000640014673581236 0.005534579799749148
91517862 -0.0006375353940976296 0.005510428410810264
91547624 -0.0005942315301079322 0.0054898423081963755
91577386 -0.000588994722813842 0.005465804258116044
91607148 -0.0006231083823057862 0.00543970038693557
91636910 -0.000618236287703781 0.0054154137027352415
91666672 -0.0005774579137472612 0.005394189445403114
91696434 -0.0005439638490900628 0.005409086660650551
91726196 -0.0004330647837538162 0.0054280582146715465
91755958 -0.00035987712075881027 0.005442623279232078
91785720 -0.00032301800074469066 0.005455030433136878
91815482 -0.00021141528986962283 0.005467571316062425
91845244 -0.0001375926542144002 0.0054757491969423455
91875006 -9.583818210290415e-05 0.0054852220969473925
91904768 -0.00012761355685595772 0.0054944978187488475
91934530 5.863701376531733e-05 0.00549606198375536
91964292 8.256554072806404e-05 0.0055156819870715666
91994054 0.00011902924005259304 0.005534270975218469
92023816 -2.1899136148075488e-05 0.005565465631229261
92053578 8.141955800208897e-05 0.005582544363484879
92083340 1.690059531910023e-05 0.005617972204516369
92113102 0.00011752197455393349 0.005629095699494593
92142864 8.296137320767564e-05 0.005651379879111746
92172626 0.00011471305117356172 0.005677793844776039
92202388 -2.031656861131016e-05 0.005702807891161609
92232150 7.522066272472494e-05 0.005700330275042346
92261912 -4.44251473055649e-05 0.005649104180372914
92291674 7.065912929239228e-05 0.005594348417657787
92321436 2.234722851955445e-05 0.005544497142796281
92351198 3.737488155018372e-05 0.00549487991801147
92380960 -1.014887837108837e-05 0.005446152510386585
92410722 -2.1181335051701613e-05 0.005393580575872139
92440484 -5.405381280976244e-06 0.005346797761344783
92470246 -6.453913379124162e-05 0.005302025853806141
92500008 -6.0249772338791126e-05 0.0052492722345251035
92529770 -6.356975462212297e-05 0.0052700537727370265
92559532 -3.9021728009788336e-05 0.005293787197766327
92589294 -7.244269700961076e-05 0.0053106043256892065
92619056 -4.7434507794354376e-05 0.0053345207209200786
92648818 -5.1531903560155724e-05 0.005355099900303575
92678580 -8.563309379600862e-05 0.005377004224366647
92708342 -6.017756351768826e-05 0.005399215681098356
92738104 -6.445188483956305e-05 0.005418372991004953
92767866 -9.737942649702486e-05 0.00543872740241931
92797628 -5.044320656345617e-05 0.0054552362368177395
92827390 -4.802333361778479e-05 0.005460982166967419
92857152 -1.4286534710462758e-05 0.0054729156745557585
92886914 -6.23456895107063e-05 0.005482467797400209
92916676 7.719195124300731e-05 0.005495751224359669
92946438 8.480223938775083e-05 0.005505191258522165
92976200 8.344032773008106e-05 0.0055182067913557165
93005962 7.457525691861983e-05 0.005521255860015165
93035724 0.0001873237597679139 0.0055320497626456895
93065486 0.00016251837325109928 0.0055331028140241925
93095248 0.0003297749681606025 0.005535443691899622
93125010 0.0004044304354974639 0.005517658410849499
93154772 0.0004791452183338341 0.005513415317438955
93184534 0.00046283099668830417 0.00550268301538252
93214296 0.0006532321064214568 0.005475284060567928
93244058 0.0006771051156149355 0.0054594461481767345
93273820 0.0008488794228574902 0.005427269930983556
93303582 0.0009011997572316105 0.005417883943708284
93333344 0.0010338885629875806 0.005380786456753174
93363106 0.0009510623414621514 0.0054020853501221535
93392868 0.000880707151549229 0.005414093313811371
93422630 0.0007980569109382868 0.0054341097338297725
93452392 0.0007991084944947776 0.005428240757955241
93482154 0.0007273635231032887 0.005435128092399456
93511916 0.0006990238855423239 0.005440321177220828
93541678 0.0006917106864589242 0.005420165694895933
93571440 0.0005769043700877368 0.005438915460016298
93601202 0.0005436209676494357 0.005439408681793805
93630964 0.0005696911986936626 0.00543420716662917
93660726 0.0006110735442227927 0.005426164004544392
93690488 0.0006957780609545052 0.005417231631630153
93720250 0.0007368687690858995 0.00540722711452207
93750012 0.0007987223137695494 0.005395024384078051
93779774 0.0008795448997982965 0.005383705959273543
93809536 0.0008668168595731587 0.00537154305878769
93839298 0.000989207211596031 0.00535581796878226
93869060 0.0010504229936652745 0.0053419580599346215
93898822 0.00111539359804946 0.00532013724012025
93928584 0.001121882796392218 0.005301317901706451
93958346 0.0011587415529584876 0.005276997819075296
93988108 0.001113054172820503 0.005257723527829391
94017870 0.0011840150347227805 0.005230042075964748
94047632 0.0011601992028513798 0.005209897203853881
94077394 0.001247340572024088 0.00518457406299535
94107156 0.0012522879724061356 0.005160068466265924
94136918 0.0012919349418091838 0.005137370508469065
94166680 0.0013011554174970897 0.005112272094161089
94196442 0.0013347897380071485 0.00536640074362694
94226204 0.0013212088069674672 0.005646924206133666
94255966 0.0014197830832720461 0.005953188885883363
94285728 0.0014261302552694487 0.006303519712502617
94315490 0.001438878875371552 0.0066934298564975455
94345252 0.001460581106198549 0.007139714108252519
94375014 0.0014157166682420557 0.007645271253020976
94404776 0.0013868051497619646 0.008221186848077783
94434538 0.0013024825450349794 0.008885649285783033
94464300 0.0013168699621689528 0.008605698180450759
94494062 0.0014342264824178683 0.007910229317809981
94523824 0.0014985184398106039 0.007310124396795633
94553586 0.0015186158733708427 0.006788891170417612
94583348 0.0015619082042183893 0.006322129895699643
94613110 0.0015547094654376858 0.0059103400187070654
94642872 0.0015589418637845063 0.005545749203862444
94672634 0.0015713632692119233 0.00521407764072611
94702396 0.0015654709992458616 0.004916542284064871
94732158 0.001557457511328336 0.004711548072224553
94761920 0.0015836933699654992 0.004649361582398092
94791682 0.001593132282720416 0.004586452312708737
94821444 0.0016164932969922143 0.004529986562953872
94851206 0.0016438434456573228 0.0044596376847486525
94880968 0.0016719242813964567 0.004405090639667704
94910730 0.0017212170746846516 0.004336871347423848
94940492 0.0017194439282913155 0.004281760779272464
94970254 0.001741070814221037 0.004214776659815063
95000016 0.0017609921765237015 0.0041566535259392025
95029778 0.0017732608806559534 0.004156409893484143
95059540 0.0018164447004717192 0.00414969167912131
95089302 0.0018348229204786395 0.004145758816307145
95119064 0.0018639471966321274 0.004141170255133625
95148826 0.0018605510486431058 0.0041386847841184465
95178588 0.0019075131725298866 0.004128135181536905
95208350 0.0019338546595949796 0.0041199879612075895
95238112 0.0019634580701967572 0.0041096070489530685
95267874 0.0019811421152020315 0.004100868809208971
95297636 0.002015865063827 0.004074380022768072
95327398 0.0020526874090115474 0.004036974983693562
95357160 0.0020795897590036956 0.003995758099508715
95386922 0.002122458107116147 0.003950337820248197
95416684 0.0021505307487414116 0.003907176139310113
95446446 0.0021814909835264555 0.0038672948013855476
95476208 0.002220727265235395 0.0038176989978644595
95505970 0.0022515885072109 0.0037737036689807794
95535732 0.0022777105846636513 0.0037166572547948987
95565494 0.002323464861008612 0.0036694059320091744
95595256 0.002380667315149158 0.0036016191980287383
95625018 0.0024286113483609714 0.0035348559598517414
95654780 0.0024812350289386306 0.0034548022376079523
95684542 0.0025409510794203536 0.0033837344321833718
95714304 0.0025818819061805207 0.003309181071510399
95744066 0.00264074647294638 0.0032317270915302593
95773828 0.0026779314995798087 0.003147636564303927
95803590 0.0027301218025571855 0.0030657902835716407
95833352 0.0027663456792953634 0.002982281346383948
95863114 0.0027778244011611255 0.002877121630772296
95892876 0.0027904761427952193 0.0027740534588807024
95922638 0.002795592107722996 0.002665158205920662
95952400 0.002797986903156357 0.0025566601352341152
95982162 0.0028001680843179264 0.0024480711515117064
96011924 0.0025361516666633564 0.002502898221032428
96041686 0.002811743327322684 0.0022289753798837614
96071448 0.0028124918519222006 0.0021157655359236387
96101210 0.0028125690079736556 0.002000074860933651
96130972 0.002560321838374101 0.002099528828653774
96160734 0.0028377688145361842 0.0017991292146846663
96190496 0.002847801388558226 0.001713018466600518
96220258 0.0028433812950494517 0.0016269983068197902
96250020 0.002863142436819072 0.0015147880843589786
96279782 0.0028674254430924384 0.0014160256184850264
96309544 0.0028718138916728237 0.0012980797317859749
96339306 0.0028653175560782135 0.001191845490636082
96369068 0.0028511989597983984 0.0010961649925730855
96398830 0.0028466277011244307 0.0009641567531368251
96428592 0.002837890644855532 0.0008447605303630785
96458354 0.002830356488609897 0.0007007279982214195
96488116 0.0028239607975719403 0.00026491535352571733
96517878 0.002787478845269584 0.00041725495540608783
96547640 0.0027509384897002197 0.0002787643970796796
96577402 0.0027197151005560007 0.0001305585961012553
96607164 0.0026673713889769413 -2.3790526582338285e-05
96636926 0.0025056390847809965 -0.0004688453788154058
96666688 0.0025596647843453054 -0.00031506769979063504
96696450 0.002457574589248932 -0.0004391680584526969
96726212 0.0023604070853218613 -0.0005592627026904139
96755974 0.0024139173519349055 -0.00044508577785764956
96785736 0.00216178697004783 -0.0008141714925655658
96815498 0.0022601890756277178 -0.000719946745869462
96845260 0.0019374261080718456 -0.0010536746108859914
96875022 0.0018149834941901001 -0.0011748764011767932
96904784 0.0016974193329419205 -0.0012706691563791003
96934546 0.0015498629023393631 -0.001401418632475879
96964308 0.001442982498485893 -0.001502822027935662
96994070 0.0013233340166173622 -0.0016061452628867475
97023832 0.0007568964717446362 -0.0017519299905672436
97053594 0.0010755313276815301 -0.0018128284525671552
97083356 0.0009563070096624567 -0.0019139771041187432
97113118 0.0012451118342936705 -0.001973242563250233
97142880 0.0006549836090878778 -0.0021026694343835315
97172642 -2.5394810202425472e-05 -0.0020698195567698903
97202404 0.00035978007131068926 -0.0022823944393037597
97232166 0.0001644115322083173 -0.0023625381867383344
97261928 1.3752473648851207e-05 -0.002436971513232891
97291690 -0.00020917987422329202 -0.0025016384664288674
97321452 -0.00039932913942163035 -0.002559795715974228
97351214 -0.0005678357818543403 -0.0026170837474758374
97380976 -0.0007785641607197538 -0.0026499138559675966
97410738 -0.000980393707191486 -0.00267335565303942
97440500 -0.0011968445203172976 -0.0026902706188517977
97470262 -0.001900560737534485 -0.0021110250922233165
97500024 -0.0015910070055350364 -0.0026842828202176656
97529786 -0.0017828560969139456 -0.0027015621790850196
97559548 -0.0024496517235587257 -0.0019664263641274438
97589310 -0.002217880534773499 -0.002635670212146665
97619072 -0.00247021734992766 -0.0025121079968173543
97648834 -0.002592036753848414 -0.0025792943813918636
97678596 -0.002765081852198023 -0.002502869988287
97708358 -0.003294415795984611 -0.001566426946953246
97738120 -0.003190648559723733 -0.002373963769112567
97767882 -0.003371515409497331 -0.002310685577947345
97797644 -0.0032109302172921273 -0.0030857337616977377
97827406 -0.0037140939889486217 -0.0020281684102977874
97857168 -0.003868677891514336 -0.001790470845756324
97886930 -0.004021363346011932 -0.0015954959025438627
97916692 -0.004008575135105963 -0.0023897042409292773
97946454 -0.004241138949716533 -0.0012048162224798473
97976216 -0.004318643797980549 -0.0019815238292453788
98005978 -0.004237275841685378 0.00010830253274602897
98035740 -0.004495220914801324 -0.0006321438215980609
98065502 -0.004569918674622997 -0.0005031708063210149
98095264 -0.004695339807956207 -0.0004939726917664766
98125026 -0.0047935903614062855 -0.0003860730505388722
98154788 -0.004619296736067181 0.0005302135457255027
98184550 -0.005021715272453844 -0.0003321841093726974
98214312 -0.005147317422544928 -0.0003341420536895195
98244074 -0.004887257187919438 0.000651151333853004
98273836 -0.0053662096306447225 -0.0003333992816360137
98303598 -0.005468862860535835 -0.0002449406339124927
98333360 -0.005574335187038732 -0.00023435207666202263
98363122 -0.005609655576181082 -0.00019371544833152868
98392884 -0.005627329611848964 -4.261693252423951e-05
98422646 -0.00567104006401604 -1.6215179273858748e-05
98452408 -0.0056761499327346344 7.69483865005235e-05
98482170 -0.0056742480090769725 0.00020889404033460298
98511932 -0.005701671916630855 0.0002495552245132779
98541694 -0.0051727623206781525 0.0012756798175154384
98571456 -0.005693177335042854 0.00045957741383404854
98601218 -0.006143599801009227 -0.0004303199300113984
98630980 -0.005702041159973927 0.0006706819963853852
98660742 -0.005711877127636741 0.0007903584850571136
98690504 -0.0051114190218232835 0.0017290182772932748
98720266 -0.0062472185883294794 0.00018539283249599235
98750028 -0.0056988796730337654 0.0012067007387607923
98779790 -0.005682288615626161 0.0013442961709092007
98809552 -0.005708566785266902 0.001415745919812941
98839314 -0.005656566793219507 0.0015829749255834528
98869076 -0.005687508829126346 0.001659514021733067
98898838 -0.00626234992670445 0.0010417888688266344
98928600 -0.0056449804825280895 0.0018790682757929644
98958362 -0.006326073068092324 0.0012122669628250842
98988124 -0.005730123901537241 0.00197105937116279
99017886 -0.005717484751496235 0.0021007606030847784
99047648 -0.005774002154239371 0.0021134054618713177
99077410 -0.005738133766445928 0.00221003977748708
99107172 -0.005757588531187896 0.0022833720934563435
99136934 -0.0058099492983803526 0.0022870855727949524
99166696 -0.005797128433397423 0.0023760257652595176
99196458 -0.005775317633524104 0.002422786598722587
99226220 -0.005832210725139917 0.002427159306006946
99255982 -0.005837378948696351 0.0024294536226615775
99285744 -0.005727549980682419 0.002511303111995709
99315506 -0.005839352638453374 0.002455711830970374
99345268 -0.005794651582727846 0.0024936794015200307
99375030 -0.005684148072660023 0.0025778748854475846
99404792 -0.005729893323658092 0.0025556941235485298
99434554 -0.005724865315448611 0.0025668383369030503
99464316 -0.005610352650473058 0.0027187950379340513
99494078 -0.005621483956245919 0.0027886673367738244
99523840 -0.0054644070064419565 0.002973073190802715
99553602 -0.005375295879611902 0.0030884444286796947
99583364 -0.005969411941935926 0.002741251787398547
99613126 -0.0044988235791835725 0.003734912347728501
99642888 -0.005153271050509698 0.003413941218159251
99672650 -0.005039459282790234 0.0035306400768429103
99702412 -0.0056090451265894846 0.0032346244092016957
99732174 -0.004940155424332953 0.0036700395299970896
99761936 -0.0047612213155043374 0.0037651923315381876
99791698 -0.005041292195811457 0.003616936670687125
99821460 -0.005002893137021619 0.003636808249765619
99851222 -0.005106625251206372 0.0035776598659942533
99880984 -0.0057491417109670605 0.0031976959592924883
99910746 -0.005108292153167472 0.0035702641878803407
99940508 -0.0058230153173045585 0.0031399449744515234
99970270 -0.005167017429212269 0.0035177276331487734
100000032 -0.005206358015264864 0.0035025444021086244
100029794 -0.0051837436409728 0.003527022036301022
100059556 -0.005154949161206836 0.0035671767955437568
100089318 -0.005144613452964815 0.0036078990489749503
100119080 -0.005114776934688543 0.003635657261278554
100148842 -0.0050987718047509805 0.0036711430237110158
100178604 -0.005081201757922496 0.00370772442853076
100208366 -0.005060241661510093 0.0037334382431301488
100238128 -0.005039030361099873 0.003773054796466619
100267890 -0.005024658446959003 0.0038035705662883865
100297652 -0.005008576768249489 0.0038310625558998102
100327414 -0.004999856984642857 0.003849416585787704
100357176 -0.005002569795763817 0.003872450157252083
100386938 -0.00498937854966305 0.003894868265638399
100416700 -0.004993876068459758 0.003914742285007018
100446462 -0.004976673072917217 0.003931784246739425
100476224 -0.004980724953283967 0.003954811415925588
100505986 -0.004978362279950411 0.003970310975863646
100535748 -0.004970992790283708 0.003993993149281743
100565510 -0.004978891425418332 0.004019853235552391
100595272 -0.005030122257583525 0.004061926889189465
100625034 -0.005071610860594051 0.004100705941440507
100654796 -0.005120785094279377 0.004141888623111672
100684558 -0.005168588361306347 0.00418220796700003
100714320 -0.005215072113823115 0.004227689738648274
100744082 -0.005268431835658335 0.004264490504516896
100773844 -0.005313548537366015 0.004306950512652005
100803606 -0.005377731360525371 0.004349683753348632
100833368 -0.005433499112569423 0.00438558160656663
100863130 -0.005369689908514224 0.004407435766369364
100892892 -0.005279056025306552 0.004434045852056911
100922654 -0.005256840083775323 0.004434121813168561
100952416 -0.005200635471249179 0.00444188280914946
100982178 -0.005135171282936006 0.0044605278225617875
101011940 -0.00508624654316478 0.004469631761182185
101041702 -0.005021332509072306 0.004482905303123052
101071464 -0.0049641722201500035 0.004489556280263068
101101226 -0.004917025270038984 0.004498154469395746
101130988 -0.004892811276498371 0.00450253777340924
101160750 -0.004884700351074237 0.0045085069287732525
101190512 -0.0048880179886767825 0.004516395818407675
101220274 -0.004884952842377426 0.004516810904633454
101250036 -0.004874258697679404 0.0045245051860845365
101279798 -0.004875131346588469 0.0045235567324770675
101309560 -0.004876700224426674 0.004522782624427598
101339322 -0.004869933556101095 0.004527647834186019
101369084 -0.00486763680779062 0.004534562600671045
101398846 -0.0048524735422062985 0.0045553916060620155
101428608 -0.004797452507097398 0.00463582397725067
101458370 -0.004748802639945794 0.004709456228536068
101488132 -0.004690495152320324 0.004784883361941772
101517894 -0.0046327714038488215 0.004860891124032258
101547656 -0.004576819987519918 0.004930846685961458
101577418 -0.004510545198347553 0.005002324557644588
101607180 -0.004447990338223946 0.005071029467096096
101636942 -0.004385425907863504 0.00514015347797002
101666704 -0.004318958961256873 0.005209323666111298
101696466 -0.0044057451306942705 0.005151594428657849
101726228 -0.004483721087944163 0.005104621632625771
101755990 -0.004562520929937379 0.005045621390707997
101785752 -0.0046259528591234885 0.004985695806802023
101815514 -0.004707293250793441 0.004918745975295254
101845276 -0.004776318132780728 0.004854952111219253
101875038 -0.004847312643192438 0.00478402181435189
101904800 -0.0049113084073424094 0.004711417143634317
101934562 -0.0049810509735308565 0.004633852852216331
101964324 -0.0049382099745143345 0.004654728625554284
101994086 -0.0048611883755601375 0.004716236849618865
102023848 -0.004788571231944756 0.004782900259466399
102053610 -0.00470012652969926 0.00485044034066256
102083372 -0.004649156274042207 0.004900180483740584
102113134 -0.004533470454282654 0.004958931885926253
102142896 -0.0044518678435486415 0.005009404115641613
102172658 -0.0043637844245397244 0.005060805841258877
102202420 -0.0042809166095031615 0.005112899606778132
102232182 -0.004253657920615057 0.005153131285186609
102261944 -0.004303850079543617 0.005167997986306275
102291706 -0.0044175107468802785 0.005192126474099769
102321468 -0.004508474037977286 0.005219891833047524
102351230 -0.0046015881314283935 0.005240143142646366
102380992 -0.0047819077524604734 0.005270155702473297
102410754 -0.004795673994312128 0.005261227636650957
102440516 -0.004889326758913018 0.005273685800266495
102470278 -0.004960209861764808 0.005285605575573211
102500040 -0.005064052690524421 0.005281578070927546
102529802 -0.00503408725336066 0.0053055034830981965
102559564 -0.0049732116720275915 0.005341491194338241
102589326 -0.004702374432648993 0.005346028407196267
102619088 -0.004866791973455358 0.005398313762640021
102648850 -0.004880510791614707 0.005446215979760768
102678612 -0.004752766202324194 0.005443024654997926
102708374 -0.004699249758087123 0.005467704626308568
102738136 -0.004709658873249156 0.005485189884175
102767898 -0.0045839414158488235 0.005510388665049408
102797660 -0.0045578636728449045 0.005500780504358447
102827422 -0.004510168956211042 0.005479460579611831
102857184 -0.0045301703073769885 0.005463561869646533
102886946 -0.004512792969851808 0.005433717430864936
102916708 -0.0044918718943337144 0.005408739870910419
102946470 -0.004468544140434137 0.005393897682730209
102976232 -0.004457702962278146 0.005373725724030992
103005994 -0.004435811693022458 0.005345966308898693
103035756 -0.004420638344541672 0.005334091382827454
103065518 -0.004407234188763392 0.00533073860902532
103095280 -0.004404984316544004 0.005358790558126283
103125042 -0.004414051148657777 0.00539251249542887
103154804 -0.004412490227871356 0.005419138618609139
103184566 -0.004417929618692365 0.005444222957009076
103214328 -0.004423865774843529 0.005478793296032237
103244090 -0.004427788863533295 0.005511800088676856
103273852 -0.004431986169558677 0.005540932859338229
103303614 -0.004431108142794645 0.005566605689620757
103333376 -0.004438999966183494 0.005598215360630616
103363138 -0.00434467824930723 0.005611209316642911
103392900 -0.004253801021062958 0.005614235639522718
103422662 -0.0041645229384237765 0.005624406640874954
103452424 -0.004078209383077151 0.005628227565789903
103482186 -0.003984288545070225 0.005633361068797513
103511948 -0.0039017453292907603 0.0056311838636639595
103541710 -0.0038228861696543207 0.005629020315138962
103571472 -0.003735103783965292 0.005626301008099147
103601234 -0.0036545632066201845 0.005623291021427123
103630996 -0.003655468747050032 0.005618097150975359
103660758 -0.0036998212866383062 0.005612767961015177
103690520 -0.0037406497476051544 0.005603779335251654
103720282 -0.003783192735259966 0.005598147359778859
103750044 -0.0038285057079084583 0.005588099165385755
103779806 -0.003870513298110627 0.005583646779177335
103809568 -0.003920688397402177 0.005573536059987589
103839330 -0.003962141072772637 0.005558756457139299
103869092 -0.004005708558540642 0.005545449471466342
103898854 -0.004054175489100234 0.005545468121989849
103928616 -0.004091515475991076 0.005571106405820818
103958378 -0.004125241819705494 0.005593559725819533
103988140 -0.004167294199506199 0.0056177922635044205
104017902 -0.004209095698417616 0.005635914043335438
104047664 -0.0042530659478186485 0.005659407206011542
104077426 -0.004291328345549745 0.0056845744995469355
104107188 -0.004330831513782099 0.005706175558773118
104136950 -0.004377973562175559 0.005726872285310763
104166712 -0.004424636539443845 0.005747731159234877
104196474 -0.004417157444158721 0.005791051311352734
104226236 -0.004402903675845998 0.00584062736062199
104255998 -0.004394145080087666 0.005890803581727
104285760 -0.0043849430516050125 0.0059391435812701865
104315522 -0.004362326736281961 0.005996848942831982
104345284 -0.004351460513973511 0.006042960828795649
104375046 -0.004344875008742939 0.006094678088006975
104404808 -0.004329287870244826 0.006140139522411693
104434570 -0.0043106351043557785 0.006190654321740344
104464332 -0.0043018833127664476 0.006172722657371408
104494094 -0.004283476304904185 0.006114538211933267
104523856 -0.004275546062254316 0.006059875961644207
104553618 -0.004258753581151321 0.006013035080751753
104583380 -0.004244877683304881 0.005955756068931552
104613142 -0.004228820757366568 0.005905496205612631
104642904 -0.0042143864250501276 0.005856878250011409
104672666 -0.004199869032334962 0.005802159779033954
104702428 -0.004178834469153858 0.005755275921789005
104732190 -0.0041645091425748125 0.005748402353716581
104761952 -0.004154619180229713 0.005820557517233386
104791714 -0.004133282900218344 0.005896818745683716
104821476 -0.004122648103709022 0.005972260966440224
104851238 -0.004098411460490279 0.006050176798234987
104881000 -0.004072556922226418 0.006123468259742947
104910762 -0.004055749137495981 0.00620720074611197
104940524 -0.004028541458838312 0.006284277616642469
104970286 -0.004004721082197117 0.0063698157511898335
105000048 -0.0039846028604657345 0.00644882674243872
