# HZ S RI R 50
90000000 -0.0008541048927645106 0.0054891112233112355
90029762 -0.0008270399539342722 0.005523032925122571
90059524 -0.001071435169301318 0.005544898588266245
90089286 -0.0009350333003686182 0.005585531509822837
90119048 -0.00112735017199973 0.005610217469026435
90148810 -0.0009935253127010143 0.005653113563395232
90178572 -0.001022537385558818 0.005686739936932492
90208334 -0.0010007310962141167 0.005721125690974263
90238096 -0.0012826089749855807 0.005749567719516849
90267858 -0.0011167054217977803 0.005785446655001539
90297620 -0.0011439548568944874 0.005774253674316804
90327382 -0.0009942102432525103 0.0057193439925388966
90357144 -0.001072451543131852 0.005679323808544151
90386906 -0.0009762724495863841 0.005635962660313104
90416668 -0.0011564286984868091 0.005586355973553607
90446430 -0.000976644145612072 0.005551921916753153
90476192 -0.0009003037156454025 0.0055109169574617724
90505954 -0.0008747969094820562 0.005467618942743516
90535716 -0.0009014563898684572 0.005427097643228589
90565478 -0.0008417438607897001 0.005408090111515656
90595240 -0.0008388354024703689 0.00541958523811829
90625002 -0.0008000939689505089 0.005436894127274526
90654764 -0.0007179272722049332 0.005454203886928621
90684526 -0.0006853452278318023 0.0054652029122823995
90714288 -0.0006453227705531916 0.005468678029827381
90744050 -0.000656812501636541 0.005492862092379189
90773812 -0.0005724864483279288 0.005509319472538208
90803574 -0.0005813850781828566 0.0055185469258439085
90833336 -0.0004976661111318275 0.005533286673911786
90863098 -0.0004734986849367632 0.00550987632633858
90892860 -0.0004959616791328559 0.005490495651240048
90922622 -0.00042787806435034837 0.005466387521194615
90952384 -0.0004067836816626581 0.005443018379791827
90982146 -0.0004259541346165026 0.005419732903021412
91011908 -0.00035928475988046614 0.005396706735812454
91041670 -0.00038047516946292185 0.005373954052776004
91071432 -0.00035781299141311057 0.005352696026125989
91101194 -0.00046307069432266766 0.005334161609337148
91130956 -0.0003067575283604421 0.005342751232764032
91160718 -0.0003786649525636693 0.005374705054496162
91190480 -0.0004113910726168853 0.00540478351538121
91220242 -0.000565336042571879 0.005437648469027299
91250004 -0.0004738563473664267 0.005468459592468239
91279766 -0.0006337368273813288 0.005496235879997574
91309528 -0.0005010453691047614 0.0055298652862632355
91339290 -0.000577698728902515 0.005559206958328479
91369052 -0.0005742084074985531 0.005591427566117647
91398814 -0.0007616675409851797 0.005595665275707747
91428576 -0.000634407731578824 0.0055758086614005
91458338 -0.0005917223857468661 0.0055567597489373025
91488100 -0.0006287348261977855 0.005528345716153535
91517862 -0.0006229089733837473 0.005503151483636496
91547624 -0.0005805707659094667 0.005482395491718841
91577386 -0.0005771231573724947 0.005459007422916741
91607148 -0.0006109585327735197 0.005432286471003462
91636910 -0.000606929768459275 0.005408603417354353
91666672 -0.0005639582622866262 0.005387115992411679
91696434 -0.0005314268381360245 0.005404536240367408
91726196 -0.000418667307128793 0.005423460055572441
91755958 -0.00034653910110210893 0.005436399004560957
91785720 -0.0003069512077965018 0.005447011998818757
91815482 -0.00019679629952836937 0.005459538594970349
91845244 -0.00012288845392950616 0.0054674114371879145
91875006 -8.046078990888262e-05 0.005478935457945196
91904768 -0.00011165195564129967 0.0054865476331363745
91934530 7.422305534978122e-05 0.005488265179968243
91964292 9.891143401973466e-05 0.005505661892263221
91994054 0.00013482399602531364 0.005525935037382116
92023816 -5.768105293988905e-06 0.005554436908569794
92053578 9.805326953826538e-05 0.005573701101674246
92083340 9.796094193288723e-05 0.005596494856098605
92113102 0.00013344145638991727 0.005618367101504677
92142864 9.897912455276772e-05 0.005642920561721139
92172626 0.00013163916655581183 0.00566801724568153
92202388 -2.089673876398246e-06 0.005696599949476573
92232150 9.31094918816673e-05 0.0056893629246761125
92261912 -2.681995226415597e-05 0.005640303036182693
92291674 8.764479727494252e-05 0.005586236702580225
92321436 3.980879308270554e-05 0.005535959298154366
92351198 5.3063050048251015e-05 0.005483556675203326
92380960 8.15859587356213e-06 0.005436191006158516
92410722 -4.868750713744516e-06 0.0053825919042967876
92440484 1.2412514536968444e-05 0.005337529819536787
92470246 -9.92877617960358e-07 0.005289312639796345
92500008 -4.18895515801356e-05 0.005240343435690691
92529770 -4.5623805079140154e-05 0.005263313698671948
92559532 -2.166260271403441e-05 0.005284966468195728
92589294 -5.244092222502107e-05 0.0053032853318538
92619056 -2.8279264424109014e-05 0.005324270844695042
92648818 -3.291066873437057e-05 0.005344483529193665
92678580 -6.45469673862747e-05 0.005365866797572236
92708342 -4.1675450992223604e-05 0.00538734986029604
92738104 -4.5951744591492346e-05 0.005407226505381838
92767866 -7.854680124178557e-05 0.005428324778581924
92797628 -3.1111548356707576e-05 0.005442998456439757
92827390 -2.4960022903446397e-05 0.005451612893969717
92857152 7.671267824370268e-06 0.005462129783611977
92886914 -4.1363452176815485e-05 0.005467659161912302
92916676 9.79157277226421e-05 0.00548321968477978
92946438 0.00011996308381341944 0.0054887966910301894
92976200 0.00014054549238471514 0.0055003081153235656
93005962 9.64307297358569e-05 0.005507159963796245
93035724 0.00020969433662997475 0.005514899315620705
93065486 0.00018281737267895765 0.005520326994746451
93095248 0.0003672919088177948 0.005511326261489869
93125010 0.00042754205976295337 0.005499953919821449
93154772 0.0005348177965767595 0.00548899641755085
93184534 0.0005212043366697971 0.005478670599549002
93214296 0.0006842373558381303 0.005440070088000089
93244058 0.0006882365491814682 0.005444017315042509
93273820 0.0008395687239601368 0.005417255913559971
93303582 0.000906698956652058 0.005404636759004254
93333344 0.0010079862593334044 0.0053744643138534534
93363106 0.00099256195907996 0.005375106883934987
93392868 0.000888109330487743 0.005396533476121673
93422630 0.000821939124012429 0.005413444776812393
93452392 0.0008280688017313904 0.005405991376142931
93482154 0.0007539263259146078 0.0054119246263163705
93511916 0.0007259194678999303 0.005414880876399607
93541678 0.0006770775502832913 0.005417886781445347
93571440 0.0006045740427076912 0.005416377246740917
93601202 0.0005744408719871325 0.005417106745293762
93630964 0.0005991833059407335 0.0054111980274477115
93660726 0.0006420988341638723 0.005402933843876139
93690488 0.0007718981710580957 0.005379980567912841
93720250 0.0007969123342281534 0.005372976206939978
93750012 0.0008283097207067062 0.005371304688848116
93779774 0.0009099005560777747 0.005356363288273827
93809536 0.0009002304684241174 0.00534653520149993
93839298 0.0010174813974403712 0.005328199606175238
93869060 0.0010802742237664286 0.005311621072531748
93898822 0.0011476326186689544 0.0052899825556326045
93928584 0.0011530338708211358 0.005268988046289852
93958346 0.0011912810164660015 0.0052430375600729445
93988108 0.0011476889421533718 0.005224998017781327
94017870 0.0012192487392433575 0.005199287809244473
94047632 0.0011925238090091392 0.005177785642396374
94077394 0.0012798704734459363 0.00514936343411477
94107156 0.001289511637521454 0.005125368237008863
94136918 0.001325985380831572 0.005098688495390795
94166680 0.0013357827133993264 0.005074574192296425
94196442 0.0013740807259582134 0.005325480740658191
94226204 0.001360659288094146 0.005602068051547462
94255966 0.0014604000837842013 0.00590756539738046
94285728 0.0014703405373911937 0.0062537986836566405
94315490 0.0014906715292573127 0.00664098469423887
94345252 0.001514757974696516 0.007078026624762452
94375014 0.0014822164907417137 0.0075816466101279465
94404776 0.0014606946502993701 0.00815310738657874
94434538 0.00137754092095449 0.00881380509234564
94464300 0.0013920021387054961 0.008534771560007167
94494062 0.0015026831864954934 0.007841095361218289
94523824 0.0015347873763588429 0.007246038564418629
94553586 0.0015778060681360922 0.0067158946245390195
94583348 0.0015928162421694223 0.006260214876663692
94613110 0.0016078392560737469 0.005847784753115056
94642872 0.0015915502735313755 0.005484662336936874
94672634 0.001618554990607453 0.00515383879562958
94702396 0.001592480954280624 0.00485861313469038
94732158 0.0015986847036162373 0.004652849575752356
94761920 0.0016220118060362987 0.004588432820811786
94791682 0.0016248528207038206 0.004526831310440557
94821444 0.0016723288880618184 0.004462055460344302
94851206 0.0016680219431951995 0.004398918620962052
94880968 0.0017255452597570934 0.004334440881821324
94910730 0.0017425715518434852 0.004271318944118241
94940492 0.001775145988365947 0.00420770121327116
94970254 0.0017648308759116063 0.004145378316997626
95000016 0.001812775234937043 0.004076399000219278
95029778 0.0018130158340276018 0.0040770114265594294
95059540 0.0018565315803996528 0.004069413744361328
95089302 0.0018760665213388447 0.0040652975123594975
95119064 0.0019065163510905063 0.0040553525636088565
95148826 0.0019052840275355868 0.004048110147781505
95178588 0.001948464449364355 0.004037693411403669
95208350 0.0019725878965533663 0.004025869468354233
95238112 0.0020031251038770187 0.00401104394966965
95267874 0.0020204570529533607 0.00399973860852288
95297636 0.0020530676913951412 0.003967247664078562
95327398 0.002088724673275759 0.0039238618408407025
95357160 0.0021142383648010705 0.0038858177087313637
95386922 0.0021542320048823656 0.0038387761096997683
95416684 0.002187380666081453 0.0037904323744623702
95446446 0.002214972632559802 0.0037441929823616832
95476208 0.002248384576535335 0.0036920158808806417
95505970 0.002276207498757931 0.003641118074316912
95535732 0.0023126619125158946 0.0035895472142328873
95565494 0.0023519002625326294 0.0035272724648017784
95595256 0.0023986597853265603 0.003458169882906482
95625018 0.0024498846660123484 0.003384843432399451
95654780 0.002497985413113558 0.0033150989961236565
95684542 0.0025469176525406705 0.0032321372581475697
95714304 0.0025956180766737564 0.0031535220448737347
95744066 0.0026391819855218807 0.003068316742034679
95773828 0.002673904483233429 0.002983895268207047
95803590 0.0027221019301184083 0.002897603341678614
95833352 0.0027559296698242953 0.0028082744418118782
95863114 0.0027670257763920225 0.0026968630885744103
95892876 0.002762164909754551 0.002591272746272362
95922638 0.002768812514846603 0.002479645890007736
95952400 0.00276713756105832 0.002368591376059815
95982162 0.002764992704183754 0.002261912267989469
96011924 0.0025359260668279524 0.0022874106325814604
96041686 0.0027459721809470613 0.0020337637117003402
96071448 0.002740747392265587 0.0019170474234674498
96101210 0.002726107640800995 0.001806818095198697
96130972 0.002506215616786994 0.0019193127111524061
96160734 0.002718710215143658 0.0016301737282799229
96190496 0.0027195331732542813 0.0015477037654411836
96220258 0.0027502240171568913 0.0013815841613778821
96250020 0.0027334793347663575 0.0013122872499421886
96279782 0.0027285209257657717 0.0012018210705862075
96309544 0.00271048531135173 0.0011136041352900446
96339306 0.0027160449255440528 0.000983950695085342
96369068 0.0026851315985736268 0.0008845436910308158
96398830 0.0026753641210084155 0.0007628986554996068
96428592 0.002652473962371077 0.0006301303282367624
96458354 0.002623471107148341 0.0004885666379039745
96488116 0.002564575592844103 8.800931552537737e-05
96517878 0.002556104594800345 0.0002325610982051365
96547640 0.0025101119869745322 0.00010354275506483926
96577402 0.002452807819083105 -4.319507366857652e-05
96607164 0.002410493944996644 -0.00016394685894469097
96636926 0.0021833624634865654 -0.0005672284646536279
96666688 0.002258646605314112 -0.000459057030922829
96696450 0.00215796813753758 -0.0005865886944061763
96726212 0.0020519725432942095 -0.0006877554972158192
96755974 0.0021245055871756003 -0.0006154511036598858
96785736 0.0018281456364824507 -0.0009248170913821503
96815498 0.0019484126140601197 -0.0008573873145442841
96845260 0.0015947006784864772 -0.0011316617936530523
96875022 0.0014710400611827874 -0.0012273766841461207
96904784 0.0013485115471283734 -0.0013340961001712748
96934546 0.0011937809128773434 -0.0014265086139503963
96964308 0.0010965657682508922 -0.0015136394944080382
96994070 0.0009751250122060955 -0.001611485906839896
97023832 0.0004199482743010104 -0.0016644503712582497
97053594 0.0007123474081399955 -0.0017904468297169536
97083356 0.0005868490467995335 -0.001875189868035119
97113118 0.0008968432735938949 -0.0020215686632211005
97142880 0.0002950956436678199 -0.0020426047341343518
97172642 -0.00035797085695512355 -0.0019264956585536958
97202404 7.75744338609571e-06 -0.002183680281409768
97232166 -0.0001742765744602148 -0.0022458528148940576
97261928 -0.00032737794196453643 -0.0022968214268098736
97291690 -0.0005315811052983356 -0.002324315177208656
97321452 -0.0007131971917537244 -0.0023583091798409666
97351214 -0.0008856608160679934 -0.002410888813218487
97380976 -0.0010688767499173195 -0.0024334590370786806
97410738 -0.001261937540296987 -0.0024164493846114752
97440500 -0.0014561289785817362 -0.002434473535598482
97470262 -0.002071352310131494 -0.0018155900091531055
97500024 -0.0018213686103281522 -0.002410895722055532
97529786 -0.0020040628112066197 -0.0024145582580691084
97559548 -0.002560852049736953 -0.0016457940808676853
97589310 -0.0024025130220681574 -0.0023286083397580284
97619072 -0.0026224801454814324 -0.0022115690377406297
97648834 -0.002758524294104877 -0.0022619706404051415
97678596 -0.0029328276842008104 -0.0021843794489721786
97708358 -0.003326939994421234 -0.0012572099698742747
97738120 -0.0032816352930489096 -0.0020528162588416016
97767882 -0.0034394591902695885 -0.0019996833060625086
97797644 -0.003337081660993764 -0.0027244305356130443
97827406 -0.0037410730868140275 -0.0017311893248695255
97857168 -0.00386710322588351 -0.0014561545813951973
97886930 -0.004010258094559167 -0.001342254731888254
97916692 -0.004047734096504203 -0.0020263838775582974
97946454 -0.004214132735875829 -0.0009672475203880498
97976216 -0.004307048224850862 -0.001642136709766356
98005978 -0.004154586533845317 0.0002720672980843312
98035740 -0.004402323048097703 -0.0003808863095267305
98065502 -0.004476667185474042 -0.00028624765192235117
98095264 -0.004590462793001808 -0.0002579207794179312
98125026 -0.004691220197425128 -0.000197389766420681
98154788 -0.004478141884693942 0.0007002374792340082
98184550 -0.004910799278991001 -0.00014452588591025995
98214312 -0.005019899895132764 -0.0001123918998293026
98244074 -0.004758418931690543 0.0008091360990577607
98273836 -0.005253674500908293 -0.00013638288808310212
98303598 -0.005337626390544933 -7.699841591919605e-05
98333360 -0.005440026556920439 -6.324574339806196e-05
98363122 -0.005478295125494528 -3.4527735438287035e-05
98392884 -0.005488820649612067 0.00011155947190000504
98422646 -0.005525378224111733 0.00013770023529440095
98452408 -0.0055459017076866 0.00020892600998815737
98482170 -0.0055279997603894645 0.0003491197670076519
98511932 -0.005563936213261403 0.0003817718065919093
98541694 -0.005037550515055241 0.00135343932302259
98571456 -0.005550568662428572 0.0005706033849598992
98601218 -0.005997464065960288 -0.0003026434978074894
98630980 -0.005561833827367305 0.000746339183511699
98660742 -0.005561854342840494 0.0008719629269457224
98690504 -0.004980434964334215 0.0017916562569487962
98720266 -0.0060905612097519515 0.0002865706608727363
98750028 -0.005557817125979379 0.0012555268257623193
98779790 -0.005540621398694786 0.0013736608021190796
98809552 -0.005573827587107196 0.0014522384138108365
98839314 -0.005520319651911135 0.0016265229549734864
98869076 -0.005540851971535666 0.0016931884756790686
98898838 -0.006107691934267804 0.001093426304117856
98928600 -0.005516803773180344 0.0019085306271628575
98958362 -0.006162694188607357 0.001238846724679175
98988124 -0.005607487759045097 0.001972210590852307
99017886 -0.005592298442667408 0.0021229375551667343
99047648 -0.005649591122808183 0.0021282546498182483
99077410 -0.0056224195483241665 0.0022316407030395454
99107172 -0.005603705181281223 0.0023107617901116594
99136934 -0.005737578918235529 0.0022703097555201233
99166696 -0.005751239784083619 0.0023267794682647848
99196458 -0.005662093261122162 0.0024162227741345924
99226220 -0.005654862736632585 0.0024455325871530695
99255982 -0.005666219975711577 0.0024407873363343226
99285744 -0.005661487288704915 0.0024731677267094713
99315506 -0.005635779380707266 0.0024930105776413
99345268 -0.005667257770819436 0.0024967290089909604
99375030 -0.005599827279599517 0.0025575695819079936
99404792 -0.005646388916345226 0.002529811156973169
99434554 -0.005639184441453205 0.0025496649593835744
99464316 -0.00553372678956469 0.002686651147489161
99494078 -0.005519917804473632 0.0027723729593342275
99523840 -0.005388562316173162 0.0029333986292156603
99553602 -0.005318555084155626 0.00305917350704942
99583364 -0.005896762575308423 0.0027025195713621503
99613126 -0.004453568797274928 0.0036967211930948873
99642888 -0.005072494739641006 0.003379670518686372
99672650 -0.004996263441802198 0.003485068648347795
99702412 -0.005555859494023555 0.0031937121178631715
99732174 -0.00487054789849153 0.0036430543523630543
99761936 -0.004725214211384297 0.0037234965445962754
99791698 -0.0050034217855290586 0.0035753015358187716
99821460 -0.0049731476367194175 0.003589116693497827
99851222 -0.005069602237214501 0.003535385163362817
99880984 -0.005705327394836183 0.0031558415780262856
99910746 -0.005076211723654595 0.003526082780935697
99940508 -0.0057769028957885705 0.003099212195791458
99970270 -0.005145806250776704 0.003478324226866522
100000032 -0.005179307403898082 0.003473568515953855
100029794 -0.005153684673467534 0.003491530370562506
100059556 -0.005131867257319103 0.0035294294816054952
100089318 -0.0051192692027179736 0.003548880588016267
100119080 -0.005094344480516164 0.003596394495987429
100148842 -0.00508406443763578 0.003632163261680126
100178604 -0.0050546984575687405 0.0036688547983354572
100208366 -0.005041706924256088 0.003695153137514342
100238128 -0.0050242094455348425 0.003734892353194785
100267890 -0.004999239783968575 0.003764993178786768
100297652 -0.004991842394473568 0.003787008097956687
100327414 -0.005089564137112804 0.0037754848399472883
100357176 -0.004984485641160452 0.0038356322979870134
100386938 -0.004982307345397044 0.0038549075050261505
100416700 -0.004981361375056862 0.0038763148619216287
100446462 -0.004980189952139752 0.0038945295587457796
100476224 -0.004972866230797243 0.003917178558398346
100505986 -0.004969083528846657 0.003937823756592053
100535748 -0.00496587360220857 0.00395400396185752
100565510 -0.004980032842178721 0.003979092618829607
100595272 -0.005020311129545863 0.004024597936125814
100625034 -0.005068442431545763 0.0040719665909503995
100654796 -0.005121958621302804 0.004113608543862294
100684558 -0.005167050745796112 0.004151582423376321
100714320 -0.005214830812585778 0.004198679406738759
100744082 -0.005266170780151795 0.0042384095048380015
100773844 -0.005319261831134147 0.004278106249174356
100803606 -0.005367712150671072 0.0043164620609461146
100833368 -0.005433012484660799 0.004361204605430981
100863130 -0.005367789285832704 0.00438103230081095
100892892 -0.0053110150227239855 0.0043945491710182865
100922654 -0.0052481773270303626 0.0044072944969933804
100952416 -0.005200452313203721 0.004420165577214198
100982178 -0.005140323521909522 0.0044282591312523635
101011940 -0.00508279339828371 0.004441585384474905
101041702 -0.005028154385660545 0.004451134231152184
101071464 -0.004970176838745769 0.004466877951622141
101101226 -0.0049163983237695726 0.00447947260506656
101130988 -0.004890852571801795 0.004481078035627773
101160750 -0.004885122949492867 0.004485718942882649
101190512 -0.004856814379312619 0.004498281350110516
101220274 -0.004853549385409512 0.004496717243969279
101250036 -0.004851865063098359 0.004502292808795132
101279798 -0.004850599018655059 0.0045036537427460615
101309560 -0.004850404281730207 0.004510033066300388
101339322 -0.004846145375471891 0.004508192693313363
101369084 -0.0048401762555805574 0.004515650084311432
101398846 -0.004852685583742137 0.004539592901734651
101428608 -0.004799864627089629 0.004618268387991397
101458370 -0.0047481600925067344 0.004692863762330947
101488132 -0.004693834462076797 0.004761403974876212
101517894 -0.004639808903327785 0.004840595868319844
101547656 -0.0045814019291527735 0.004915371699167774
101577418 -0.0045239753600826195 0.004980894838533708
101607180 -0.0045225978278633705 0.005039959539737022
101636942 -0.004395873148956132 0.005121821365817946
101666704 -0.004328996642751893 0.005187805604040296
101696466 -0.0044091197813703655 0.005132288784414671
101726228 -0.004492024897373937 0.005074970756778857
101755990 -0.004567841047070897 0.005026235159632291
101785752 -0.004703772166787155 0.004951856645844487
101815514 -0.0047158515788044905 0.004899008766396639
101845276 -0.004786185767478514 0.004831340348772026
101875038 -0.00485384579514048 0.004759585697461806
101904800 -0.00498291784059046 0.004670163135779182
101934562 -0.00497657836752178 0.004611847328487467
101964324 -0.004949901156537899 0.004629503838217555
101994086 -0.004874978535232955 0.004690416242991597
102023848 -0.004787802526932666 0.004749607875463519
102053610 -0.004706643635465305 0.004808946912847935
102083372 -0.004630591076309421 0.004863647932794244
102113134 -0.004545228236225705 0.004920410216476003
102142896 -0.004460699084900142 0.00497258864640643
102172658 -0.004373656234031061 0.005026585933446665
102202420 -0.0042926552276563315 0.005076211143038388
102232182 -0.004141287459846119 0.005123799874976703
102261944 -0.004284546629648736 0.005129222640883938
102291706 -0.004430274844083073 0.005156441773964829
102321468 -0.004516012099928012 0.005172743098262072
102351230 -0.0046147378704381094 0.005189162976029365
102380992 -0.004708428958216554 0.005208615431671268
102410754 -0.004797331798928737 0.005223720100068577
102440516 -0.004900055793141652 0.0052292778167951325
102470278 -0.004999592714158333 0.005236968015452259
102500040 -0.005104490219168303 0.005246729715639152
102529802 -0.005050091462087765 0.005272724898939054
102559564 -0.005063519087376366 0.005321176710164316
102589326 -0.004944542931988336 0.005331828585069397
102619088 -0.004889953923104975 0.005357420001308658
102648850 -0.004831031815890573 0.005386870947016486
102678612 -0.00478221535157562 0.005412276373327283
102708374 -0.004551320384486911 0.005245674515844775
102738136 -0.0046676466612663396 0.005465544103116073
102767898 -0.00461266778487858 0.005485674249771719
102797660 -0.004583615043486286 0.005483433847034108
102827422 -0.004564629036606338 0.005457198335524259
102857184 -0.004547174824476414 0.005435298384544679
102886946 -0.004528093253052631 0.005409290155752764
102916708 -0.004516119169891111 0.005391961454368072
102946470 -0.0044997119173704496 0.005364662031282067
102976232 -0.0044804878454064315 0.005350986700680297
103005994 -0.004465415404608805 0.00532749256182414
103035756 -0.004449526467142146 0.005302310771007791
103065518 -0.004441631765890248 0.005302295397531138
103095280 -0.004445063878159495 0.005335379353609242
103125042 -0.0044497584452867014 0.005368785164120765
103154804 -0.004448078851009065 0.005395773944033563
103184566 -0.004451520184507406 0.005424427228822766
103214328 -0.004457480844434756 0.00545638760703739
103244090 -0.004465631754793646 0.005483480629175963
103273852 -0.004466452959991094 0.0055182790353338305
103303614 -0.004465650187325793 0.005552214577082708
103333376 -0.004470742225481892 0.0055822404988803516
103363138 -0.004385102840724972 0.005594383336322222
103392900 -0.004291506463769592 0.005604239483030999
103422662 -0.004204634736973761 0.005610300889662295
103452424 -0.004118876719498634 0.005617838508193098
103482186 -0.004031728945743772 0.005619746974204876
103511948 -0.003939461126482684 0.005619466543397658
103541710 -0.0038552474125155166 0.005624784378141708
103571472 -0.003773498770808268 0.005619607103286813
103601234 -0.0036893175848576243 0.005622655447990186
103630996 -0.003693235975680931 0.005621182253579167
103660758 -0.003739043980688858 0.00560985170420117
103690520 -0.0037800310016468846 0.005603634565113885
103720282 -0.00382158521131272 0.00560002735109587
103750044 -0.003869474986848418 0.005591663789951423
103779806 -0.003909371377839307 0.005580107313188354
103809568 -0.003957980081850766 0.005573011487460191
103839330 -0.003995613893090937 0.00556367051675187
103869092 -0.00404348102325916 0.0055486760435600226
103898854 -0.00408923116841818 0.005544110209169512
103928616 -0.004126461315662026 0.005574568704253619
103958378 -0.004164878962004236 0.005597579236348958
103988140 -0.004231002753693898 0.005617531794388607
104017902 -0.00424897846724313 0.005640567924410885
104047664 -0.004288633207033416 0.005668377943404562
104077426 -0.004328595758095934 0.005684892222713309
104107188 -0.004375789123851054 0.005704560487986793
104136950 -0.004414618211550254 0.005730545291282812
104166712 -0.004461789193698524 0.0057497895136181185
104196474 -0.004449268259420078 0.00580101599833788
104226236 -0.004437611008408873 0.005845643348357828
104255998 -0.004427156926625048 0.005900391394757216
104285760 -0.004415018060691959 0.0059514731115440506
104315522 -0.004403912360458739 0.005999455880288845
104345284 -0.004388471991951584 0.00604993737810955
104375046 -0.004374012896385015 0.006102496600686283
104404808 -0.004363021845369086 0.006153865990435785
104434570 -0.004349099328999161 0.0062059592814674045
104464332 -0.004331857100304032 0.006187494096107679
104494094 -0.004321733586707432 0.006135527472875861
104523856 -0.004305983274384421 0.006077469881316314
104553618 -0.004293232486802096 0.006022090907711667
104583380 -0.004278476098696806 0.005975926543313587
104613142 -0.004258015112780148 0.00592224218822153
104642904 -0.004247084917973511 0.005872380918448031
104672666 -0.004227840241175564 0.00582039409957472
104702428 -0.004214502492459421 0.005771716832998642
104732190 -0.0041905368164453765 0.005765373351377975
104761952 -0.004179762909306506 0.005839030131993334
104791714 -0.004161822716484878 0.005910276786293773
104821476 -0.004142308496238056 0.005992428595288761
104851238 -0.004127103451413985 0.006067286810089559
104881000 -0.004102857332602947 0.006146208237879061
104910762 -0.004081665389548588 0.006230726294279374
104940524 -0.004058585108294481 0.0063020928236137514
104970286 -0.004032570811445816 0.006385693142193398
105000048 -0.0040100844202956235 0.006466807889299763
