# HZ S RI R 50
90000000 -0.000842676829548578 0.0054846511791662046
90029762 -0.0008153843814198078 0.005518849130556879
90059524 -0.0010573755699795396 0.005544759756400796
90089286 -0.0009210071610768247 0.005583714052982834
90119048 -0.0011128285676907715 0.0056068461633498766
90148810 -0.0009794611646151638 0.005648804556572965
90178572 -0.0010775728660549462 0.005687186033795365
90208334 -0.0009865873076475979 0.005715805027877742
90238096 -0.0012352906974877633 0.005739456645835443
90267858 -0.0011012056150933583 0.005780962642690695
90297620 -0.0011120784438818298 0.005759756423814935
90327382 -0.001032063434014966 0.005718715642277111
90357144 -0.0010220198151898532 0.0056704332517347016
90386906 -0.0009618720236124239 0.0056329375853116
90416668 -0.001145850327221239 0.0055802093143993
90446430 -0.0009641952448430367 0.005545781133527423
90476192 -0.0008862699887050465 0.005506948127666982
90505954 -0.0008610875369705095 0.005465041390247792
90535716 -0.000885096923627616 0.005421834497051076
90565478 -0.0008102043103111049 0.005401838037387588
90595240 -0.0008084122995237143 0.0054117096696457735
90625002 -0.0007876177740700121 0.0054303712792755955
90654764 -0.0007043455133692067 0.005446598527548213
90684526 -0.0006699871685858998 0.005460188222643441
90714288 -0.0006789842371225751 0.00547401365756962
90744050 -0.0007093744283571457 0.005492939165858097
90773812 -0.0005580582526381757 0.005499414619758385
90803574 -0.0005684437126663276 0.00551581396151717
90833336 -0.0004820999569217909 0.005528041064098443
90863098 -0.00045773039009750806 0.005504035014807713
90892860 -0.000481240368189018 0.00548209764422907
90922622 -0.00041225723059861753 0.0054580556870572625
90952384 -0.00039033647882849923 0.005435228049803102
90982146 -0.0004109418450687118 0.005412180647206246
91011908 -0.0003465469006224801 0.0053882694149952485
91041670 -0.0003641031859257739 0.005369708405116028
91071432 -0.0003422033186547083 0.005345413881059011
91101194 -0.00044949851846848 0.005324696396425318
91130956 -0.0002920752828753027 0.005335184507101353
91160718 -0.00039611056103320923 0.005371437441185898
91190480 -0.0003914201725522263 0.005399505024033105
91220242 -0.0005510116156335604 0.005428729363043268
91250004 -0.0004569170700909534 0.005459908681533033
91279766 -0.0006155750770989179 0.005489817813405427
91309528 -0.0005004519664750547 0.005520541346172261
91339290 -0.000559599872461146 0.005550798714335209
91369052 -0.0005546543974989425 0.005580900946900879
91398814 -0.0007453484214621944 0.005587073346343589
91428576 -0.000614705683248062 0.005570368133238233
91458338 -0.0005731590115634288 0.0055468110639959115
91488100 -0.0006080143991520475 0.005519850418327445
91517862 -0.0006047293072174976 0.005496122798016207
91547624 -0.0006451198155013418 0.005478080012469102
91577386 -0.0005576947266906109 0.00544707123775294
91607148 -0.0005896982491103494 0.005425136509923324
91636910 -0.0005863600223464604 0.005402486934456667
91666672 -0.0005455132113841019 0.005379697591544807
91696434 -0.000509649100045849 0.0053910623560715154
91726196 -0.0004001096597525068 0.005413606425420394
91755958 -0.0003273976181260171 0.005425917719376469
91785720 -0.00028751300344846025 0.00543949783810056
91815482 -0.0001768850842948747 0.005450834748007338
91845244 -0.00011773635843284056 0.005457197924351304
91875006 -6.16366964643571e-05 0.005467531074958201
91904768 -8.930869486760851e-05 0.005477622790486987
91934530 9.38145096197705e-05 0.005477560262050026
91964292 0.00011796284572453994 0.005488632075810584
91994054 0.00015396496530405352 0.005514336954715558
92023816 1.553051123979978e-05 0.00554251876387114
92053578 0.00012142675850635936 0.005559953235757278
92083340 0.00012119743679166103 0.005584926551243888
92113102 0.00015627834655036735 0.0056059277077729
92142864 0.00012208473908702425 0.00563108573021871
92172626 0.00015431505680827402 0.0056549651796075325
92202388 1.9965464314806055e-05 0.005680042001001507
92232150 0.00011560969950076278 0.005676171768953854
92261912 -2.9385553976302967e-06 0.005625217044734707
92291674 7.84382745828681e-05 0.005576090980568001
92321436 4.609364775073382e-05 0.005522496168301132
92351198 6.260418852951478e-05 0.005474153756733471
92380960 1.6522815578757164e-05 0.005423283512626736
92410722 1.6631024065012964e-06 0.005375126216399896
92440484 3.665986099974136e-05 0.0053208667242338
92470246 2.195979426657013e-05 0.005275408125077967
92500008 -3.493845935622545e-05 0.005231213898521656
92529770 -2.077739557193967e-05 0.005248034276636967
92559532 -2.5608448704738678e-05 0.005269418115888882
92589294 -2.7306097505849134e-05 0.0052879672157984375
92619056 -2.6655751975967953e-06 0.005309649072221683
92648818 -5.65379890951708e-06 0.005329801054907546
92678580 -3.978764414117232e-05 0.005351619849100847
92708342 -1.4343881823856735e-05 0.00537007175259267
92738104 -1.911033594234367e-05 0.005391741348780651
92767866 -4.741358888181453e-05 0.005410849068247329
92797628 -3.1342318783982328e-06 0.005428307881025399
92827390 6.63002387566694e-07 0.005437647866532876
92857152 3.451033634293046e-05 0.005447704038922035
92886914 -1.0635256437635306e-05 0.005450816466222985
92916676 0.00013051626121267325 0.0054659938971751846
92946438 0.0001386627124720552 0.005474264720294182
92976200 0.00017088120524717544 0.005480675853339908
93005962 0.0001291508837267845 0.005487393912796673
93035724 0.00024280837613102139 0.00549690789446335
93065486 0.00021734836683783595 0.005499280904313581
93095248 0.00039959874872052317 0.005488328114347596
93125010 0.00044313980189931545 0.005483710309947804
93154772 0.0005678319246401141 0.0054656757301501475
93184534 0.000553265973406825 0.005453462151585158
93214296 0.0007072838082246222 0.005432942436129883
93244058 0.0007354221582293541 0.005414753789017005
93273820 0.0008734341345476665 0.005390091497903216
93303582 0.0009565619684522285 0.005370133948075787
93333344 0.0010582526923015494 0.0053426946980465705
93363106 0.0010258292674594053 0.005349928088555569
93392868 0.0009383893426867616 0.005366153793944569
93422630 0.0009065618892543561 0.00536659268026668
93452392 0.0008612748913432715 0.005379392692021892
93482154 0.0008678989997982965 0.005357426616829217
93511916 0.000762040361821104 0.005387403897058577
93541678 0.0007296279965725817 0.0053843791236492695
93571440 0.0006408059099864691 0.0053902982085793985
93601202 0.0006300964053116304 0.005386272471391989
93630964 0.0006358201912320133 0.00538296168892907
93660726 0.0006822352567760722 0.005369671546558257
93690488 0.0007928959310660695 0.005353270840134338
93720250 0.0008048754969924406 0.005349591571152901
93750012 0.000869768312660072 0.005334883886927264
93779774 0.0009500444695967913 0.0053220026479761885
93809536 0.0009382561935517266 0.005309537999984566
93839298 0.0010585066141275469 0.005291876927992159
93869060 0.0011193922871468992 0.005275913000649758
93898822 0.0011893721190742762 0.005252087880133739
93928584 0.001191618670038389 0.005229267332702733
93958346 0.0012307306100030535 0.005206930951495665
93988108 0.001187915154256143 0.005183454706692067
94017870 0.0012609031987806376 0.005158106726186701
94047632 0.0012358997566409397 0.005135400516279406
94077394 0.0013235847145765451 0.005107251545969014
94107156 0.0013317038659176553 0.005081054105064278
94136918 0.0013695073333389487 0.0050541248065165785
94166680 0.0013782756706359977 0.005026443385919867
94196442 0.0014199595495635064 0.005275943949722685
94226204 0.0014133690716419906 0.005550952092293109
94255966 0.0015153670941009962 0.005849652296028304
94285728 0.0015347089657500156 0.006194085811366775
94315490 0.0015542940956588462 0.006578726782382501
94345252 0.0015834892154700366 0.007013443791617716
94375014 0.0015575086635816271 0.007505680223877702
94404776 0.0015429311849306467 0.008073877764086362
94434538 0.0014727714474100375 0.008732154750246416
94464300 0.0014857638632471447 0.00844353987046118
94494062 0.0015943169039101006 0.007759172142053926
94523824 0.0016396823621125124 0.0071599197996845155
94553586 0.0016546077985968202 0.0066375223217218495
94583348 0.0016843198661277902 0.006181288755701054
94613110 0.0016748776302247168 0.005769669531504205
94642872 0.0016729497724944401 0.005408904017811079
94672634 0.0016777064365499595 0.005078628259603094
94702396 0.0016686649228537223 0.004785189498650082
94732158 0.0016559751967930984 0.004582199199019272
94761920 0.0016742328002673666 0.004517481794314059
94791682 0.001673712268693698 0.004457260945429986
94821444 0.001729404154220115 0.0043860597808234245
94851206 0.0017230952117190947 0.0043276362521893225
94880968 0.0017823304909375924 0.004259868702622843
94910730 0.0017976999933586163 0.004189562311362829
94940492 0.0018605729716059548 0.0041200670712834165
94970254 0.0018195968336593771 0.0040630630667199494
95000016 0.0018633196582855188 0.003994828507737908
95029778 0.001863316218795927 0.003990981480964852
95059540 0.0019103022703952169 0.003977003005095983
95089302 0.0019313758583114835 0.003968296971612215
95119064 0.0019600932789266595 0.003960391779280943
95148826 0.0019601058488473875 0.0039518898081591786
95178588 0.002006910468894529 0.0039374807746418595
95208350 0.0020448046941829315 0.003918664745274089
95238112 0.0020587408473348267 0.0039035334986705626
95267874 0.0021000950027214482 0.0038859400911106018
95297636 0.0021167365633743894 0.0038537147467244686
95327398 0.0021639845393394814 0.0038040087527440817
95357160 0.0021775052559465653 0.0037633377622582225
95386922 0.002213278672481427 0.0037155234909929565
95416684 0.002244047149057177 0.0036650412735002823
95446446 0.002271063889732788 0.003612854371455666
95476208 0.002311235500779519 0.0035558522778932704
95505970 0.0023332232513027817 0.0035082804245906455
95535732 0.0023674845354837992 0.003445696011206481
95565494 0.0024124587909822195 0.0033784133631454233
95595256 0.0024587376973183475 0.003306853063047914
95625018 0.0025029292369389802 0.003232314966635533
95654780 0.0025509195641666236 0.0031471817033350497
95684542 0.0025939185062925367 0.003067982291648181
95714304 0.002640866182856111 0.0029798814139325586
95744066 0.0026783399870101737 0.0028937915060874213
95773828 0.0027143554707043677 0.002804847332794553
95803590 0.0027587050123695192 0.0027055197757719835
95833352 0.002789728303278286 0.002612917747883356
95863114 0.00279513606759645 0.0024987120212757825
95892876 0.002796005209582681 0.0023874816232498076
95922638 0.0027840795423272266 0.0022743455838157185
95952400 0.002784144868861905 0.00216191256639024
95982162 0.002773434979548048 0.0020481297852650167
96011924 0.002537617321681116 0.0021149918077598517
96041686 0.002753758387530793 0.0018096609597535306
96071448 0.0027402812428613693 0.001697723552389688
96101210 0.002718670010496246 0.0015761462911627153
96130972 0.0025218024685952287 0.0016914260677674722
96160734 0.0027179065455767 0.0013410925772095064
96190496 0.0027066968095285165 0.0012740320860868562
96220258 0.0027015656730181477 0.0011686082802197
96250020 0.0026905802155212347 0.001057953629156942
96279782 0.002679457246918275 0.0009541584755511646
96309544 0.002662542192830378 0.0008329295726936569
96339306 0.0026444146446153428 0.0007422764806529117
96369068 0.0026146988781124837 0.0006015187066375353
96398830 0.0025855959877597893 0.00046973034948896014
96428592 0.0025479821048299636 0.00032406802931279004
96458354 0.0025122310930361775 0.00021357853835544347
96488116 0.0023775104109747098 -0.0002086743072215342
96517878 0.00241538991162448 -6.0329972061904614e-05
96547640 0.002341491773154368 -0.00022033572949326348
96577402 0.0022883880085838746 -0.0003418708509978337
96607164 0.0022091642165568736 -0.0004824236651431773
96636926 0.0019189904661547524 -0.0008368145040475577
96666688 0.0020472466491373814 -0.0007504033016167394
96696450 0.0019299451233456583 -0.0008731689359500459
96726212 0.0018219847278752614 -0.0010033909056100924
96755974 0.001940150218141039 -0.0009284761958516277
96785736 0.0015642068169212282 -0.0011915121206187561
96815498 0.0017346349889644944 -0.001156457398786505
96845260 0.0013137517822762526 -0.0013887731982223889
96875022 0.0011640710009820068 -0.0014773341801571054
96904784 0.001043984052078917 -0.0015631204299534538
96934546 0.0008697565589823817 -0.0016447018256330991
96964308 0.0007559374247669182 -0.0017263621489699993
96994070 0.0006173537263349449 -0.0018150907582095835
97023832 1.4681153748968168e-05 -0.001776197600021828
97053594 0.0003294241179281629 -0.0019780737999835064
97083356 0.00020326608180232686 -0.002048958131144384
97113118 0.0005386152861014726 -0.002242276376938909
97142880 -0.00010753422713937669 -0.0021836840578744418
97172642 -0.0007591305732340664 -0.0019426691453984868
97202404 -0.00040725834813168084 -0.0022991678545358704
97232166 -0.0005842428864010459 -0.002331705338896293
97261928 -0.0007440851563089064 -0.0023635129622659496
97291690 -0.0009537501311420776 -0.0023992594523719597
97321452 -0.0011361905646421167 -0.0024125646425233144
97351214 -0.0013065119337411478 -0.0024318282538808057
97380976 -0.0014875351656102426 -0.002437890696952322
97410738 -0.0016951451677758307 -0.00240791184375331
97440500 -0.0018732637280047737 -0.0023831004639529602
97470262 -0.0024400674027091093 -0.0016869396596841046
97500024 -0.002234624077242565 -0.0023222348008038263
97529786 -0.0024091429789454277 -0.002327107979122442
97559548 -0.002899530084617915 -0.0014789915377400257
97589310 -0.0027799068870159 -0.002208797074119405
97619072 -0.0029918665228638444 -0.0020650192959964847
97648834 -0.003115390888973175 -0.002104670479101793
97678596 -0.00329665829908673 -0.0019921922681677873
97708358 -0.003601277068032064 -0.0010257393214586263
97738120 -0.003614392606997034 -0.001856860425014134
97767882 -0.0037739889663363233 -0.0017666923112614236
97797644 -0.00373232648835834 -0.002571143769737652
97827406 -0.004042895428016954 -0.001477447324549564
97857168 -0.004159130241345591 -0.0012432431717675615
97886930 -0.004256132402385389 -0.0010577054364824755
97916692 -0.004355777939783967 -0.0018336345791226051
97946454 -0.004416252165695225 -0.0006748775588108766
97976216 -0.004579157659240194 -0.001434561509778776
98005978 -0.004255516039469299 0.0005411873903398176
98035740 -0.004555548109424422 -0.00012295023924697746
98065502 -0.004624507704853827 -2.5894286282002976e-05
98095264 -0.004735048329953442 -4.152250755655805e-06
98125026 -0.004821014926418547 6.0176123026463875e-05
98154788 -0.004558853801283852 0.0009440550481112485
98184550 -0.005041073641967315 0.00012204421233715715
98214312 -0.005124724222947714 0.00013013360393146375
98244074 -0.004823894550839472 0.0010307577491134167
98273836 -0.005365427439095774 0.00013449933776093042
98303598 -0.005446151343895006 0.00018601357246332746
98333360 -0.005550871099074869 0.00020821419312913982
98363122 -0.0055786735273186125 0.00022646593633807014
98392884 -0.0055867203478066705 0.0003546286291474428
98422646 -0.005612295063025141 0.00038545387984997544
98452408 -0.005624770002619994 0.00047336745115988954
98482170 -0.005604050030229206 0.000582750544906942
98511932 -0.005636294862344552 0.0006027505888077516
98541694 -0.005061509585892655 0.0015485441251506455
98571456 -0.005578128341809307 0.0008176307694371695
98601218 -0.006111782355938665 -7.248948598586738e-05
98630980 -0.0055766322347970895 0.0009949674262439952
98660742 -0.0056216509223883885 0.0010513097056670624
98690504 -0.004963140113144973 0.0019810564149598878
98720266 -0.006180530231124035 0.0004941908173603216
98750028 -0.005542390401844618 0.0014825451182271874
98779790 -0.005593737880917621 0.0015551552504522034
98809552 -0.005615208130254896 0.001622518042116627
98839314 -0.005522898861324338 0.0018067173821300676
98869076 -0.0055468175987239705 0.001883095607170156
98898838 -0.006134425241895809 0.001309194019016635
98928600 -0.005504127559247641 0.0020806308952382854
98958362 -0.006185816974850315 0.0014417345172075572
98988124 -0.005590631782732431 0.0021655717662524628
99017886 -0.005587048974235398 0.0022579102137219747
99047648 -0.005645078906707649 0.002258367329897174
99077410 -0.005611602673386853 0.0023634071232998995
99107172 -0.00562680217255314 0.0024086089390543126
99136934 -0.005692313583579427 0.002427541051843622
99166696 -0.005713087738264677 0.0024769222411982843
99196458 -0.005647505548993388 0.0025427869435984546
99226220 -0.005736018531191401 0.002886981754140278
99255982 -0.0056887302799673925 0.0025511862931946617
99285744 -0.005649164463783009 0.002590192849269287
99315506 -0.005663830750791216 0.0025811113449512955
99345268 -0.005618267473172304 0.0026222924180192356
99375030 -0.005584030999507816 0.0026693786960748866
99404792 -0.0057715577557110615 0.0025780997250821904
99434554 -0.005641243988599964 0.002649436490537848
99464316 -0.005487804415622952 0.0028132281363896115
99494078 -0.005431231447970586 0.0029013708006368124
99523840 -0.005332507492786434 0.003047156533177563
99553602 -0.00528970251847594 0.003144644025529341
99583364 -0.005915237523196949 0.002764001641338126
99613126 -0.004428124581851251 0.0037736033615479885
99642888 -0.005051513877338668 0.003469656009107882
99672650 -0.004966946125879421 0.0035677227536890085
99702412 -0.005570164688500558 0.003269523568497203
99732174 -0.004842104652928853 0.003725643079028494
99761936 -0.004700439499026231 0.003798399036602363
99791698 -0.004940824732140922 0.003665459640444004
99821460 -0.004949494840219652 0.003665023774114258
99851222 -0.005048622858278611 0.0036067837123374916
99880984 -0.005681184186821727 0.0032372613806399522
99910746 -0.00505217722351402 0.003597976549196127
99940508 -0.005758882253872776 0.0031900314478887698
99970270 -0.005016563260731653 0.003553461104014326
100000032 -0.005145775528756179 0.0035299209606255676
100029794 -0.005129363890089609 0.003556242115023315
100059556 -0.005110847081968022 0.003591334831474072
100089318 -0.005096840217123948 0.003632002322173382
100119080 -0.005074367353592356 0.003664268347619424
100148842 -0.0050601767853878325 0.003697597240697811
100178604 -0.005038235817789716 0.0037313672078460374
100208366 -0.00502410275021328 0.0037662178920684344
100238128 -0.004999974827179115 0.0037995318508767563
100267890 -0.004977183590092288 0.0038264544475903363
100297652 -0.004972090029525902 0.00385799166736063
100327414 -0.0049691002395823095 0.0038735517676084285
100357176 -0.004962256945840022 0.0038929296462485562
100386938 -0.004962820306135581 0.00391702908284665
100416700 -0.0049538669357291915 0.0039374191554753
100446462 -0.004954144377742274 0.003957894298626895
100476224 -0.004948374885142915 0.003972493659996275
100505986 -0.004949899484734097 0.003991290662914614
100535748 -0.004942029592480798 0.0040148505672578765
100565510 -0.004957442230528748 0.004044084867331453
100595272 -0.005000699507579488 0.004084681961036747
100625034 -0.005049454211938349 0.004120744814638587
100654796 -0.00509920542284886 0.004165366918621948
100684558 -0.005142542730525588 0.004208113553536012
100714320 -0.0051929747177099144 0.00425481120014244
100744082 -0.0052377983629629705 0.004290910201158858
100773844 -0.005296516154354549 0.004333935805119234
100803606 -0.005348436624317744 0.004375754300023002
100833368 -0.005404175139888632 0.004416743295212546
100863130 -0.005345815064116425 0.00443507758645506
100892892 -0.005290710013208811 0.004446182191328417
100922654 -0.005236287046324351 0.004452712248744567
100952416 -0.005176555989434068 0.00446975923936691
100982178 -0.005114948040373298 0.004483163265636571
101011940 -0.005056010856799209 0.004493030196640624
101041702 -0.005008003726522908 0.0045029272570734
101071464 -0.00495005642632162 0.0045107549191076065
101101226 -0.004889864967998371 0.00451908534037154
101130988 -0.004871052346500132 0.004524583663771501
101160750 -0.0048702213399941414 0.004528685676783168
101190512 -0.004869260032721689 0.004530007696403455
101220274 -0.0048712248060357064 0.004537281423680913
101250036 -0.004864674239026909 0.004535206273299057
101279798 -0.004863019394889584 0.004541782522535351
101309560 -0.004858080129880022 0.00454365267643997
101339322 -0.004855890233715454 0.004543181786550488
101369084 -0.004857659154490966 0.004547251096626444
101398846 -0.004838561934010876 0.004578047033230906
101428608 -0.0047829491854753225 0.004655153261604493
101458370 -0.0047289290674242725 0.004728025263668809
101488132 -0.004677547584879923 0.004801099609112156
101517894 -0.0046216385926330875 0.004872021748893614
101547656 -0.00455732004815498 0.004951928520478288
101577418 -0.004499369376262643 0.005019202630305369
101607180 -0.004441141402181777 0.005087209069597617
101636942 -0.004378068030332274 0.0051600921624162
101666704 -0.004309307258601443 0.0052198373943829314
101696466 -0.0043952558663286415 0.005167995290396996
101726228 -0.004473354371583589 0.005115670231868887
101755990 -0.004547044292533168 0.005053032787995759
101785752 -0.0046245391435864695 0.004991944048544888
101815514 -0.004698098582422386 0.00493137282994891
101845276 -0.004763771161394647 0.004863275731624939
101875038 -0.004869778399603164 0.0047916671303605595
101904800 -0.0049068349834517685 0.004722923584076012
101934562 -0.004974808095992542 0.004644931270406658
101964324 -0.00493696010785219 0.004662103401323035
101994086 -0.0048577484121289675 0.004731520183924934
102023848 -0.004784352317553317 0.004792053291413437
102053610 -0.0046987418217444 0.00485111617750126
102083372 -0.0045909600726178335 0.004898579100908127
102113134 -0.004538415078996751 0.004960502931214251
102142896 -0.0044568519333132006 0.005022805942944737
102172658 -0.004369070907943264 0.005069537075682613
102202420 -0.00428580782694084 0.005114971517031298
102232182 -0.0042514391505772695 0.005152585711443799
102261944 -0.004396503005190824 0.0051829707042417746
102291706 -0.004433625140717667 0.00519263214142276
102321468 -0.004516871673625904 0.0052149524201880165
102351230 -0.004632862203387545 0.005236034079287912
102380992 -0.004700902157261858 0.005247105868987942
102410754 -0.004760964351221955 0.005263088626216315
102440516 -0.004925735067612195 0.005275004556631929
102470278 -0.004992920141010778 0.005284944092073802
102500040 -0.005096795700000146 0.0052874245163091384
102529802 -0.005039137754495677 0.005321255698234109
102559564 -0.0049840326673401105 0.0053439387641253605
102589326 -0.0049306561769355325 0.005372975454382673
102619088 -0.004875704205475358 0.005403468170385798
102648850 -0.004825727228899093 0.005428770274960579
102678612 -0.00476489988882698 0.005452784248482279
102708374 -0.004706503511297379 0.00547530804187209
102738136 -0.004659670359485998 0.005502433745403895
102767898 -0.004601162544452696 0.005521294239232572
102797660 -0.004569610444011268 0.005512856250457393
102827422 -0.0045572474592788185 0.0054917448183159365
102857184 -0.004530356642583469 0.005468792841437986
102886946 -0.004516594387820331 0.0054509721202370435
102916708 -0.004506694033421256 0.0054261238454930884
102946470 -0.004483632754672938 0.005404383953762962
102976232 -0.004466099826835531 0.00537683772423032
103005994 -0.004441854510242802 0.0053571157712931985
103035756 -0.004432477102509816 0.0053401695565736445
103065518 -0.004420338522056183 0.00533475938231266
103095280 -0.00442137419433687 0.005365514307599225
103125042 -0.004427482091711902 0.005396549284855509
103154804 -0.004425198313284019 0.0054245089702104395
103184566 -0.004435302938187156 0.005458632235691402
103214328 -0.0044418586233336155 0.005490184762650229
103244090 -0.004441655872851072 0.0055194123475549904
103273852 -0.004450185762481338 0.005551393022328106
103303614 -0.004454135573492133 0.005585278336070251
103333376 -0.004456582851907732 0.005615107781009328
103363138 -0.0043643241217356035 0.00562400781669996
103392900 -0.004271158738072451 0.0056322668094142365
103422662 -0.004183607066555111 0.005635575409051407
103452424 -0.00409555046668807 0.005638389088280571
103482186 -0.004008541911984498 0.0056508396335468855
103511948 -0.003919323568909156 0.00564724208911668
103541710 -0.003838631387316497 0.005645205710703366
103571472 -0.003757798391285602 0.005648684643194513
103601234 -0.003673752487047265 0.005642679795296168
103630996 -0.0036736764135765405 0.005638277629893325
103660758 -0.003713437595205502 0.005638025877269441
103690520 -0.003760640883792193 0.005626907860252089
103720282 -0.003804980247041152 0.005621503509921334
103750044 -0.003848582397145622 0.005610221141520068
103779806 -0.003891900848390019 0.005603624136565368
103809568 -0.003938522912524657 0.005590677478642493
103839330 -0.003980304667615321 0.005585090548814384
103869092 -0.004025819374781695 0.005569514309308081
103898854 -0.004066218520218616 0.00556805294804727
103928616 -0.004107201368959871 0.005594757517105876
103958378 -0.0041473788951317155 0.0056166910737775995
103988140 -0.004186106043193755 0.005636962600830258
104017902 -0.004229239856593349 0.0056645912469842925
104047664 -0.004267123033499018 0.00568688171685313
104077426 -0.004310695481547739 0.005708150015526988
104107188 -0.004356720112890858 0.005730293273356437
104136950 -0.004400921978335308 0.005752989527895781
104166712 -0.004445472668851524 0.00577951591380037
104196474 -0.004431213778850398 0.005828515583499296
104226236 -0.004420047229885585 0.005872693097617545
104255998 -0.0044109112987002356 0.0059180217473391245
104285760 -0.0043959949045047015 0.005968198215716135
104315522 -0.004388216076008067 0.006021735661219665
104345284 -0.004366457851726026 0.006071436922282186
104375046 -0.004361955642344312 0.006121401512392452
104404808 -0.00434329908810655 0.006171353423437591
104434570 -0.004333301982981705 0.006225919425233731
104464332 -0.004316227762371825 0.006199178890550617
104494094 -0.004306867079811463 0.0061460484260105605
104523856 -0.004288927226522927 0.0060937103263150865
104553618 -0.004273231196425915 0.006039816303531582
104583380 -0.00425757582899589 0.0059907914978520466
104613142 -0.004245179343825249 0.005934118262147443
104642904 -0.004229797031500029 0.005885860416492748
104672666 -0.004213663559230449 0.005833762666482594
104702428 -0.004189358603159287 0.0057819366407066775
104732190 -0.0041768466836004416 0.005779935588072712
104761952 -0.004164877043687221 0.005851912551039317
104791714 -0.004142584732322964 0.005930479148065675
104821476 -0.004124592259147807 0.006002320098604335
104851238 -0.004107609239729412 0.006084208500662756
104881000 -0.004088680800881213 0.006158931118449752
104910762 -0.004066648485936905 0.006240095212214975
104940524 -0.00404428403892644 0.0063212256195492
104970286 -0.004014388209055624 0.006393543767189952
105000048 -0.003987497667961703 0.006484806294272945
