# HZ S RI R 50
90000000 -0.0008313066769128153 0.005481621399237949
90029762 -0.0008031157291000115 0.005514819437865877
90059524 -0.0010612041710727355 0.005541513792269867
90089286 -0.0009109478890114171 0.00557827728973753
90119048 -0.0011007482693835846 0.005604349255613703
90148810 -0.0009663167265691133 0.00564406826982361
90178572 -0.0009952779982204338 0.0056784262310819065
90208334 -0.000973615846533629 0.005714831909251016
90238096 -0.001293301057718325 0.005749582374022918
90267858 -0.0010881267565992388 0.005775855747577921
90297620 -0.001083630173202857 0.0057584687379966335
90327382 -0.0009671521569184974 0.005707811204998647
90357144 -0.0010097845857293536 0.005666762566810389
90386906 -0.0009476658106080849 0.005630090212543575
90416668 -0.0010951955429955725 0.005570533279919341
90446430 -0.0009485313895544574 0.0055415076350795196
90476192 -0.0008723824330135068 0.005503037675106158
90505954 -0.0008481873122563063 0.005460573317525038
90535716 -0.0008736078174644661 0.005418714853215771
90565478 -0.0008287353689877216 0.00540436566757223
90595240 -0.000809649626742231 0.005413182989504203
90625002 -0.0007742819068009793 0.005424888746878659
90654764 -0.0006918325647334192 0.005439635121163822
90684526 -0.00065603774722038 0.005455558598251249
90714288 -0.0006637711832101504 0.005467783724866977
90744050 -0.0006272318825059059 0.0054813495022876906
90773812 -0.000543285116130496 0.005495786021090844
90803574 -0.0005509346077664519 0.0055094182041118475
90833336 -0.00046814966914829564 0.00552305578940259
90863098 -0.00044431584566849793 0.005497630514675744
90892860 -0.0004668508723115026 0.005476678249984889
90922622 -0.0003984671588121767 0.005451422319827589
90952384 -0.0003619489131575079 0.005426126874789079
90982146 -0.0003954501886849566 0.005407656506751941
91011908 -0.0003303211344533539 0.005383165941473986
91041670 -0.0003522209098836407 0.005361621102580706
91071432 -0.000327651797090394 0.0053401611185190994
91101194 -0.0004342140532474013 0.005317513903659923
91130956 -0.000277006124177811 0.005331212315298516
91160718 -0.00034640167288934475 0.005362310575054296
91190480 -0.00037823917097309034 0.005389597390306742
91220242 -0.0005337519568623167 0.005423975831462819
91250004 -0.000441417902760127 0.005451903338562281
91279766 -0.0006006004095363542 0.005482486117355267
91309528 -0.0004667877011610826 0.005516362462344196
91339290 -0.0005430096102904505 0.00554411512018012
91369052 -0.0005380883189081182 0.005577066075585628
91398814 -0.0007270819161857015 0.005579673503319072
91428576 -0.0005987078501558832 0.005562154655941368
91458338 -0.00055415946480849 0.005537483990115676
91488100 -0.0005915327182637867 0.005514858327542869
91517862 -0.0005882012347663205 0.00549144559758142
91547624 -0.0005433769789682312 0.005467309387254832
91577386 -0.0005397312909107829 0.005445413293289486
91607148 -0.0005742461607286188 0.005417919420775792
91636910 -0.0005682945126355298 0.005393947966780433
91666672 -0.0005276872360641519 0.005373271559287224
91696434 -0.0004901302407557974 0.005390100960470465
91726196 -0.0003817117762734743 0.005405998904894794
91755958 -0.0003088862018620833 0.005419382044014767
91785720 -0.00027093170225482203 0.0054303654235390636
91815482 -0.00015926966182106184 0.005440131618348695
91845244 -8.210631963973947e-05 0.0054502720111042225
91875006 -4.2201931850015145e-05 0.0054572851631114585
91904768 -6.959319208561163e-05 0.00546776160139047
91934530 0.00011176925210900951 0.005466279706297415
91964292 0.0001374792518141299 0.005484568285277443
91994054 0.0001719262645057876 0.005503288091354049
92023816 3.5120728770970826e-05 0.0055314566429133065
92053578 0.00013984881019473536 0.005550185588734318
92083340 0.00014263988820973389 0.005572517621658635
92113102 0.00017406167230819378 0.005594047704911852
92142864 0.00014298879613553766 0.005618467315866955
92172626 0.00017743465359364144 0.005642306082850821
92202388 4.255015618166219e-05 0.005667438697746065
92232150 0.00013787536922070474 0.005665325137036033
92261912 2.046632787640824e-05 0.005614713515899834
92291674 0.00013192326858186513 0.0055581291599793555
92321436 8.47396300779223e-05 0.005506578694574625
92351198 0.00010076922720850173 0.005460291728413603
92380960 5.491246460026273e-05 0.005409973041966091
92410722 4.1749370846600386e-05 0.005359997361788381
92440484 5.805841847519421e-05 0.005311350373888561
92470246 4.5286087590332245e-05 0.00526273266995053
92500008 4.340286509875821e-06 0.005212722698353552
92529770 3.119713148561042e-06 0.005232969599392284
92559532 2.9156604566156333e-05 0.005256181533001719
92589294 -4.563876069384408e-06 0.005275593232742107
92619056 2.2676847116966822e-05 0.005295127517291155
92648818 1.744133329801015e-05 0.005319055544957128
92678580 -1.238476997327507e-05 0.005336405487984332
92708342 1.1314843401580658e-05 0.005358115884466811
92738104 6.477703863177442e-06 0.0053794015215325505
92767866 -2.4554269996552638e-05 0.005397405826502906
92797628 2.3921023988362874e-05 0.005413976146878756
92827390 2.929723822925161e-05 0.005420777640654444
92857152 6.286155922099924e-05 0.005429098859804303
92886914 1.480630900198877e-05 0.0054345159007935144
92916676 0.0001585559303972782 0.00544948200813215
92946438 0.0001647986773355434 0.005455101601564515
92976200 0.00020112439887864358 0.005465217514057047
93005962 0.0001562911770658806 0.00547055023839195
93035724 0.0002546650541590871 0.0054825337861033625
93065486 0.00021441818173420165 0.00548860638149833
93095248 0.0004789018331447387 0.005463638857142073
93125010 0.0004900430500970444 0.005458228315913344
93154772 0.0006746731601456378 0.005417243927220063
93184534 0.0005998997141955421 0.005429947833537274
93214296 0.0007203727438040941 0.005414131012160024
93244058 0.0007017530704315529 0.005410947551478335
93273820 0.0009184933960597985 0.005362233451892771
93303582 0.0010171657081586283 0.005335643162639159
93333344 0.0010876951353882749 0.005317431349465588
93363106 0.0010386641260278925 0.005324674640866666
93392868 0.0009679381743198399 0.005339477099029703
93422630 0.0008895911163351284 0.0053525131239092255
93452392 0.0008915043549492084 0.0053538474860789515
93482154 0.0008226626814178055 0.005356662141359361
93511916 0.0007958735291089512 0.005361692189069126
93541678 0.000746216185172834 0.005361569556795305
93571440 0.0006760729212972594 0.005362959586046072
93601202 0.000648096475366226 0.005361864700402757
93630964 0.0006748331199497664 0.005355618384427912
93660726 0.0007175508853545388 0.005346028866538522
93690488 0.0007990846230875193 0.00533240467139055
93720250 0.0008411836124820679 0.005322246576827911
93750012 0.0009042696729998018 0.005308344300485748
93779774 0.0009869178132510422 0.005291043383483481
93809536 0.0009734600083326573 0.005277952820904594
93839298 0.0010927764354627728 0.005259345522872871
93869060 0.0011591055441320733 0.005240335007771179
93898822 0.001226355324793013 0.005216554814347721
93928584 0.0012321736574528958 0.005191820916625586
93958346 0.0012712339226229976 0.005167350511185227
93988108 0.0012258935007778012 0.0051474026135389815
94017870 0.001302091340193921 0.0051167060069972625
94047632 0.0012743260871022734 0.005094302260188657
94077394 0.0013612561169770586 0.005066420300545321
94107156 0.0013698894314410795 0.005039732768891937
94136918 0.00140715566180427 0.00501411731772816
94166680 0.0014154158490778438 0.0049875382089808
94196442 0.0014630775001645748 0.00523062613179781
94226204 0.0014603430633527733 0.005503298842377666
94255966 0.0015616981461907993 0.005801462007228312
94285728 0.00158550582091371 0.006136099252843886
94315490 0.001613655236812103 0.006515910096512659
94345252 0.001648135395944051 0.0069465981976161535
94375014 0.0016306181626745844 0.00743375871979605
94404776 0.0016207310445145613 0.008000541525283181
94434538 0.0015576539242690883 0.008648914978636535
94464300 0.0015754588672101178 0.008363001955760481
94494062 0.0016695880323351572 0.007682436529711465
94523824 0.001709806327009029 0.007084712240028487
94553586 0.0017217207876631794 0.006564602166005447
94583348 0.001748136102763972 0.006112510333671151
94613110 0.0017337126913960531 0.0057031952480616635
94642872 0.0017271881102283633 0.005341369412682186
94672634 0.0017279441170694413 0.005016764418874245
94702396 0.0017130357512470209 0.004720874827920679
94732158 0.0017022536584491456 0.004515119317100251
94761920 0.001724474470332093 0.004450219658524565
94791682 0.0017214923217026988 0.004386963738374173
94821444 0.0017720166090784827 0.004317453286580329
94851206 0.001769663506853739 0.004254222130445823
94880968 0.001826654534696809 0.0041848191632945664
94910730 0.00184036024593604 0.004120226925598616
94940492 0.0018720381670071255 0.004047550516355526
94970254 0.0018613578193024739 0.003988705340437697
95000016 0.0019062488048352355 0.003918549420507454
95029778 0.0019112902904422672 0.003911929775098858
95059540 0.001953410478585544 0.0038969826908884734
95089302 0.00197273600452795 0.0038850320165278117
95119064 0.0020068411782856416 0.0038740392427617457
95148826 0.0020066914716901567 0.0038620491506776377
95178588 0.0020544490742545932 0.0038442774064714864
95208350 0.0020767719904497 0.0038275044025169896
95238112 0.0021076761621761112 0.0038096482179495314
95267874 0.0021266751080894508 0.003785684130432114
95297636 0.002161390632376724 0.0037514844745251885
95327398 0.0021954274624222687 0.0037014027252747976
95357160 0.0022207554734889894 0.00365475646894048
95386922 0.0022529858653629075 0.0035992723458029333
95416684 0.0022864615994492173 0.003547674238234826
95446446 0.0023130470393767756 0.0034957962663094925
95476208 0.002342507178065707 0.0034389682047119637
95505970 0.002374729354724871 0.003378552274227215
95535732 0.0024063870191564822 0.0033196461891501373
95565494 0.002440612550573534 0.003246009615465087
95595256 0.0024888266443591997 0.0031704717794780414
95625018 0.002533528486370245 0.0030940578570543054
95654780 0.002574101990915241 0.003008759120792032
95684542 0.0026134121200313445 0.00292351157342736
95714304 0.002656157109894471 0.0028323170835282316
95744066 0.002693138555792229 0.0027393667872393375
95773828 0.0027259597324434067 0.002645473459121931
95803590 0.0027689444891442878 0.0025487927038389613
95833352 0.002796997062871303 0.0024485231823062627
95863114 0.002793979832424662 0.002333333603067932
95892876 0.00278997693055865 0.0022181365992138555
95922638 0.002785189525669388 0.002100262965744933
95952400 0.0027724148746083132 0.0019912156622940436
95982162 0.0027519142945612043 0.0018754359681319944
96011924 0.002521673949702734 0.001940395779412333
96041686 0.002706876963555694 0.0016451665395437998
96071448 0.0027024199880733295 0.001514351533972181
96101210 0.002652547575585667 0.001416635274988645
96130972 0.0025093791615100284 0.0015013421507126124
96160734 0.0026491802156109654 0.0012006862850505557
96190496 0.0026403553852152608 0.0011106908925187671
96220258 0.002628682160810104 0.0009799744701794483
96250020 0.0026151305039210666 0.0008654539002876541
96279782 0.0025761685475170835 0.0007775502229371182
96309544 0.0025672879374727914 0.0006172361705215718
96339306 0.0025350758107037324 0.0005312963719527027
96369068 0.0025050492528502382 0.00039253802209089926
96398830 0.002457214994848718 0.0002652912898181855
96428592 0.0024255847988973117 0.0001396781041726356
96458354 0.0023778670769936177 2.7436308953584775e-05
96488116 0.0021992734482500402 -0.00036944637648159514
96517878 0.002254383835425308 -0.00024009257844431512
96547640 0.0021902723092042517 -0.0003957302622532743
96577402 0.0021072252994313646 -0.0005196470746962371
96607164 0.002022332365711038 -0.0006526469408456841
96636926 0.0016894405771528268 -0.0009596793388925392
96666688 0.0018452980693904868 -0.0009155433399733426
96696450 0.0017028296882253039 -0.0010281816877946734
96726212 0.0016005808836856976 -0.0011313275696666668
96755974 0.0017543654930848754 -0.001109164963758959
96785736 0.0013308509575843223 -0.0013317218779113984
96815498 0.0015299476425524935 -0.00133108641447698
96845260 0.0010680400410529522 -0.001507374082442689
96875022 0.0009238489633105162 -0.0015797070347958778
96904784 0.0007905400918657995 -0.001654346315887616
96934546 0.0006144165274558541 -0.0017314384898124012
96964308 0.0005061634735396191 -0.0018148142326941594
96994070 0.000368802381130736 -0.0018859898943856196
97023832 -0.0002416619194582172 -0.0017757329252436204
97053594 8.297626527299262e-05 -0.002034535187196206
97083356 -5.976310271666032e-05 -0.0020947661746486355
97113118 0.0002825470694764677 -0.0023228188693497362
97142880 -0.00037180111490331055 -0.002188670732465173
97172642 -0.0010029991603350272 -0.0018919893481135152
97202404 -0.0006660388366979999 -0.002284878010348633
97232166 -0.0008315629171001006 -0.0023185770258191216
97261928 -0.0010105447370839604 -0.0023513355358976288
97291690 -0.0011891804223286718 -0.0023616112579745844
97321452 -0.0013769961902211497 -0.0023677098565826438
97351214 -0.0015425230332701 -0.0023855207343668663
97380976 -0.0017348595274240004 -0.0023700710669374153
97410738 -0.0019193217618034698 -0.00233825274943955
97440500 -0.0020986572314728364 -0.0023184522416473717
97470262 -0.0026071655327868795 -0.001560842436223604
97500024 -0.0024431305325527597 -0.002232739700535016
97529786 -0.002611312555912485 -0.002226434592282351
97559548 -0.0030414954081340443 -0.0013398615747151287
97589310 -0.0029602603857757474 -0.0020944950899023517
97619072 -0.0031522112579003185 -0.0019375542257091907
97648834 -0.003292082942984814 -0.0019932688841219673
97678596 -0.003447770426696489 -0.0018826337075039813
97708358 -0.0037074029102468183 -0.0008824740916356646
97738120 -0.003769076044356793 -0.0017260625206973704
97767882 -0.003921570192942964 -0.001631609099442796
97797644 -0.0038940965433501267 -0.002466974083707796
97827406 -0.004157895552036707 -0.0013400220671729644
97857168 -0.0042653735696957865 -0.0011084562545298987
97886930 -0.004346043033495363 -0.0009321952631877718
97916692 -0.004475484324858086 -0.0017027211397786168
97946454 -0.0044903172922502845 -0.0005631101891141224
97976216 -0.004675595210289889 -0.0013118783904625519
98005978 -0.004286719073137028 0.0006513555035906705
98035740 -0.00460871179186023 -1.3695041864905413e-05
98065502 -0.004660317268317533 0.00010727183778267651
98095264 -0.004778382425017884 0.00010602119124713466
98125026 -0.004868339568410127 0.0001766139406480023
98154788 -0.0045833736046241025 0.0010397043594106803
98184550 -0.005079391364640623 0.00021688083584802217
98214312 -0.00518820076570351 0.00024103121312484148
98244074 -0.004841113916436414 0.0011369323565735326
98273836 -0.005398927703305893 0.00022890660616265094
98303598 -0.005477018559696709 0.0002829110152623777
98333360 -0.005586548453988381 0.00030555978781137934
98363122 -0.0056268127711200855 0.00032716120030207345
98392884 -0.00561031997630152 0.00046057658489753696
98422646 -0.005651595207331544 0.00048591858112351027
98452408 -0.0056692981257013084 0.0005512275957157986
98482170 -0.005634437750310928 0.0006661124924925492
98511932 -0.005662800496679885 0.0006878297020816408
98541694 -0.005072446724381314 0.001615318802804522
98571456 -0.005631080011894162 0.0008717126336207606
98601218 -0.0061367079450745975 3.737645495565814e-05
98630980 -0.005628533656221668 0.0010276318907836595
98660742 -0.005628690796595039 0.0011685279653592866
98690504 -0.00500331607800097 0.002012275533980335
98720266 -0.006176135225889074 0.0005853625598367463
98750028 -0.005604326452526594 0.0015252792704445984
98779790 -0.005597382057530465 0.0016371557630464279
98809552 -0.005607138666849442 0.0017133142094540455
98839314 -0.005547822537798165 0.0018700024942703787
98869076 -0.005565427103154686 0.001938893288759242
98898838 -0.006163512764499504 0.001376277734234593
98928600 -0.005526795517055046 0.0021377895051362425
98958362 -0.00620874917353269 0.0015112714256150953
98988124 -0.005604230998406493 0.002203716827352317
99017886 -0.0055606068933314315 0.0023118346930711383
99047648 -0.005587861307253127 0.002331431011045619
99077410 -0.005598043356983268 0.002409454973038859
99107172 -0.005609647099728293 0.0024679977418205156
99136934 -0.005960078094578147 0.0026405124454779473
99166696 -0.0056953533927598535 0.0025192918541289094
99196458 -0.0058137611101986226 0.002500343454648137
99226220 -0.005691880526626805 0.002583652313745217
99255982 -0.005599337876872419 0.002620084320782281
99285744 -0.005564906844151757 0.002667314987244851
99315506 -0.005650703040922394 0.0026215259272995375
99345268 -0.005650474891495841 0.0026475734223777216
99375030 -0.005543010200210385 0.002716026321457466
99404792 -0.005619953554578616 0.0026701933866274978
99434554 -0.005614286204728432 0.002688758347062077
99464316 -0.005512158835382545 0.0028203727889226154
99494078 -0.005491516005437597 0.0029025801562375404
99523840 -0.0053588527108821655 0.003068931208893904
99553602 -0.005285112862787079 0.0031752734160587917
99583364 -0.0058823104038761 0.002830801088974433
99613126 -0.004422791512032449 0.0037982754905339236
99642888 -0.005042691596140753 0.0034959251930170056
99672650 -0.004962364422037877 0.0035887521071780396
99702412 -0.0056152583703154985 0.003299220162457689
99732174 -0.00483315629169868 0.0037479459866149537
99761936 -0.004697216798813918 0.00382097651624228
99791698 -0.0049699956797009575 0.003674531298174674
99821460 -0.004939932179688493 0.0036865336229443676
99851222 -0.005043568044135231 0.0036323288023336585
99880984 -0.005686366638804034 0.0032592799963770593
99910746 -0.005052398850309519 0.0036195950583871937
99940508 -0.00575292487412829 0.003207797112257758
99970270 -0.005114507360434844 0.003571909283117486
100000032 -0.005153800788293696 0.003547716537349892
100029794 -0.005129065529597624 0.0035811372923393336
100059556 -0.005112253035860278 0.003613918953908937
100089318 -0.005092694291421992 0.003641941694107151
100119080 -0.00507645024693183 0.0036776545969308284
100148842 -0.005053910609612662 0.0037207500968749747
100178604 -0.005044960747715452 0.003749995834390631
100208366 -0.00501865924749047 0.003780793716090998
100238128 -0.0050010349644743005 0.0038124207563518648
100267890 -0.004980302100784092 0.0038395147366808084
100297652 -0.004975766228135238 0.0038604001124001933
100327414 -0.004968558985196603 0.0038816869068793126
100357176 -0.004969212218180699 0.0039045849920413345
100386938 -0.00496945882161474 0.0039262162549185105
100416700 -0.004966186940741628 0.003948265673149229
100446462 -0.0049616734651986875 0.0039696020195828805
100476224 -0.004954998418276308 0.003986564550897767
100505986 -0.004956320887253727 0.004005309415822781
100535748 -0.0049572017485219584 0.004020319597703862
100565510 -0.004969037841847244 0.0040438277973513185
100595272 -0.005014074166464986 0.0040880453860775426
100625034 -0.005055684201061544 0.004132258766359144
100654796 -0.005109330121011955 0.0041748425679153005
100684558 -0.005158749465915369 0.004214108527359953
100714320 -0.005196751295358226 0.004257475666534258
100744082 -0.005259491251789558 0.004300984682072748
100773844 -0.00531017875993886 0.0043443614525591695
100803606 -0.00536973268009805 0.004378684894831027
100833368 -0.005423517150215507 0.004419962448891359
100863130 -0.005368662000722325 0.004434950954666759
100892892 -0.005305680093414993 0.004455119507558208
100922654 -0.00524639276544991 0.00446392396287396
100952416 -0.005189977927456992 0.004475090453676972
100982178 -0.005143740575746662 0.0044852601711885065
101011940 -0.0050863027292363545 0.004503377112939993
101041702 -0.0050240580485114514 0.004513212572015704
101071464 -0.004970446595004247 0.004516036829804328
101101226 -0.004919885663312322 0.004529537510986364
101130988 -0.004902849313378946 0.004522655371822256
101160750 -0.00489238777527013 0.004542265215577308
101190512 -0.004901146091628781 0.004541684425318351
101220274 -0.004901005444466282 0.00453963961691659
101250036 -0.004891662345891445 0.0045463887584893245
101279798 -0.004833694118101548 0.004562052334174771
101309560 -0.004863770808726851 0.0045587740088060815
101339322 -0.004858769829769853 0.00456270920479211
101369084 -0.004857923914742881 0.0045627414288587935
101398846 -0.0048430024030219065 0.004590363099948873
101428608 -0.004794840529270182 0.004665627560840443
101458370 -0.004732160208488807 0.004744061231331705
101488132 -0.004712564657907929 0.004810865218618503
101517894 -0.004659174652978422 0.004884327536923241
101547656 -0.004596010191775057 0.004965005219515497
101577418 -0.004534840218292103 0.005034241179756439
101607180 -0.004471502557598971 0.005108469219920032
101636942 -0.004416083479256706 0.005178547540433325
101666704 -0.004348678601905595 0.005246569716265914
101696466 -0.004431073749331144 0.005189798443743973
101726228 -0.004511159563458421 0.005138035810253944
101755990 -0.004588855743627402 0.005077419921138631
101785752 -0.004665084933922129 0.005017606565214394
101815514 -0.004743878846674965 0.004952888688496801
101845276 -0.004811681103608406 0.004885288694057709
101875038 -0.004884864326848439 0.004819059863272634
101904800 -0.004951772692916601 0.004743168105346709
101934562 -0.00501697516476082 0.0046658009958562355
101964324 -0.0049795482919856564 0.004686489998250123
101994086 -0.004902009586558767 0.0047524753975974636
102023848 -0.004819599407626143 0.004816504130468643
102053610 -0.004746087307860721 0.004878012054392179
102083372 -0.004656602535943731 0.004940253982514059
102113134 -0.004567853418847196 0.00499601195771785
102142896 -0.004488322451149556 0.005048212105852298
102172658 -0.004402370303798658 0.005103361815548572
102202420 -0.004321736850666967 0.005146757731918613
102232182 -0.004284807688343224 0.005187164913606804
102261944 -0.004530022684383299 0.00519570547483957
102291706 -0.004486711983490552 0.005236570508793596
102321468 -0.0045488622543708584 0.005259089192374822
102351230 -0.004640973877699018 0.005277290271994238
102380992 -0.004768275833916629 0.005282596130607438
102410754 -0.004833770510930954 0.005308667647124039
102440516 -0.004935883149476838 0.005321443567411557
102470278 -0.005066384490242641 0.0053235051761328775
102500040 -0.00513832597486982 0.0053374476893120575
102529802 -0.005081144182841671 0.005369754705891338
102559564 -0.005026413395140387 0.005401415405344652
102589326 -0.004975337435385818 0.005422142217209319
102619088 -0.004911058378883755 0.005452133086702082
102648850 -0.004954205663074069 0.005505727708379922
102678612 -0.00480105101490141 0.005503710351301164
102708374 -0.004747357606074975 0.005534111700734535
102738136 -0.004689396743573057 0.005557664495447819
102767898 -0.004631257532313928 0.005571762734067581
102797660 -0.004600011633271516 0.005573957349857042
102827422 -0.004581258058637302 0.005551995360966451
102857184 -0.0045650625053997645 0.0055333620447707635
102886946 -0.004547891167639025 0.005507471350341411
102916708 -0.004529336983247157 0.005487747285863387
102946470 -0.004513414430496175 0.005466803167542848
102976232 -0.0044967966966306784 0.005446085539140337
103005994 -0.00447541054466202 0.005424946907108811
103035756 -0.004456689891832122 0.005404561196902485
103065518 -0.004445290749453546 0.005400668915107373
103095280 -0.0044457796592390405 0.005432448312794157
103125042 -0.00444949792648601 0.00545996269400514
103154804 -0.0044510265174062934 0.005487483508120496
103184566 -0.004455679821827832 0.005521949060713445
103214328 -0.004455168796761612 0.005559482322517983
103244090 -0.004459343417498079 0.00558841763254333
103273852 -0.004464928964354348 0.00561617152162903
103303614 -0.004465807044702082 0.00565578866988439
103333376 -0.004473666441844929 0.005680932741010328
103363138 -0.004373886717286117 0.005694062050925193
103392900 -0.004314203078627853 0.0056987977432056
103422662 -0.004192265547823107 0.005707721604022329
103452424 -0.004099536859325508 0.005713319195396258
103482186 -0.004014676564623589 0.005713222627974247
103511948 -0.003928605528475941 0.005710918460060767
103541710 -0.0038358732023440153 0.005715733159647714
103571472 -0.0037549991244368907 0.005708421936091876
103601234 -0.003672515502977877 0.0057147822522288045
103630996 -0.003671175626590588 0.0057085778002729515
103660758 -0.0037140892370897145 0.00570045468014092
103690520 -0.003758118644262332 0.0056932708267882605
103720282 -0.00380448571808732 0.005690857537034348
103750044 -0.003841516780177676 0.005680013371007207
103779806 -0.0038893822775314833 0.005676837328890829
103809568 -0.003931376063995978 0.005662156830400355
103839330 -0.003976273290136632 0.005649123409596279
103869092 -0.004018610294903268 0.005631185636839438
103898854 -0.004057407870317841 0.00563769593115788
103928616 -0.004098886409409193 0.0056626226155249105
103958378 -0.004140844992811615 0.0056832846423230075
103988140 -0.004177633307519369 0.005704812824311792
104017902 -0.004214838305619764 0.005732412743278479
104047664 -0.004260269280762497 0.005754316202289411
104077426 -0.00430200086834252 0.005777264491099056
104107188 -0.004340225306876903 0.005797853205816904
104136950 -0.004379281003708176 0.0058150304884017024
104166712 -0.004427925506641668 0.005843595197138998
104196474 -0.004413049716594017 0.005896797703694042
104226236 -0.004403487544174188 0.005941546108710231
104255998 -0.004388190367399709 0.005988980135527447
104285760 -0.00437572177845181 0.006035869420088864
104315522 -0.004362522802178901 0.006089742906550774
104345284 -0.004347256249061766 0.006134971695439222
104375046 -0.004330249784961057 0.006185520037192223
104404808 -0.0043243076257753485 0.0062331579308924434
104434570 -0.004304899111098711 0.00628823470965295
104464332 -0.004291241746708347 0.006261476290644204
104494094 -0.0042752677505314895 0.006207838421550397
104523856 -0.004263842457880269 0.006152218172660843
104553618 -0.00424728453785838 0.006100309181666219
104583380 -0.00423491069618143 0.006043336089961103
104613142 -0.004213249493967178 0.005997215925211947
104642904 -0.004199827845487651 0.005941510858036387
104672666 -0.004182853095351278 0.005892086286681871
104702428 -0.004166640326432614 0.005837188813918669
104732190 -0.004150590329745134 0.005835159887238713
104761952 -0.004134839502943804 0.005906130058671877
104791714 -0.004116685855226289 0.005981626877493074
104821476 -0.004096224795862182 0.006055196653904639
104851238 -0.004076524471912555 0.006134383247426093
104881000 -0.0040513452088607824 0.006212031077918589
104910762 -0.0040355757262158995 0.006293167939511396
104940524 -0.004065794985437809 0.006372823262102915
104970286 -0.00398105764457161 0.006450629874319174
105000048 -0.003961258435940446 0.006530206490086035
