# HZ S RI R 50
90000000 -0.0008077662609668993 0.0054740794374153814
90029762 -0.0007823047103135217 0.005508843382933667
90059524 -0.001019509720852467 0.005532320180698675
90089286 -0.0008892705509339653 0.005572382230729831
90119048 -0.0010415475289987407 0.005587152225582774
90148810 -0.0009426314852324114 0.005638112147065758
90178572 -0.0009714501847536378 0.005669433480484869
90208334 -0.0009316596161902698 0.005698913732764492
90238096 -0.0011957280662274593 0.005722606784145799
90267858 -0.0010438642623947939 0.005766172596752771
90297620 -0.0010563139731676534 0.005750010340582548
90327382 -0.0009564033104926791 0.005704942944452214
90357144 -0.0010363528838035361 0.0056630566287925455
90386906 -0.0009201648245573502 0.005620513568754296
90416668 -0.0011012729438443982 0.005567130742683346
90446430 -0.0009214901001454896 0.005532829510982963
90476192 -0.0008480366106709247 0.005490554490428519
90505954 -0.0008234571995043129 0.005449647655817543
90535716 -0.0008461772087719424 0.005406180856314691
90565478 -0.000768364191168538 0.0053873462253347885
90595240 -0.000781455004581348 0.005401998971861631
90625002 -0.0007457130825653603 0.005415257033714706
90654764 -0.000662969802149259 0.005431818732609684
90684526 -0.0006259959381727407 0.005444032536998294
90714288 -0.0006363995821062073 0.005458743924579444
90744050 -0.0005991244980619912 0.0054710858784465
90773812 -0.0005138539798499562 0.005484154210739996
90803574 -0.0005237548273783932 0.005496070921875293
90833336 -0.0004390400877403633 0.005508036169070626
90863098 -0.0004144898792453692 0.0054863130817733585
90892860 -0.0004373005338016604 0.005463920894624979
90922622 -0.00043433564106602133 0.0054464655490953865
90952384 -0.0003452663700088967 0.005416906151626191
90982146 -0.0003682288055061415 0.005395313077553152
91011908 -0.00030131706106563996 0.005369017333199435
91041670 -0.00031935384789628837 0.005347227250553116
91071432 -0.00029747044549078015 0.005324629999262791
91101194 -0.00040283867535686514 0.005303931950407167
91130956 -0.00024557722958604166 0.005313497191335658
91160718 -0.0003147361185647156 0.00534500052537468
91190480 -0.00034552371930231105 0.005374064707169843
91220242 -0.0004998036625486531 0.005406953127990644
91250004 -0.00040853830011408713 0.005436929832815553
91279766 -0.0005651885527936608 0.005466478901452514
91309528 -0.00043403719711037324 0.00550091283411554
91339290 -0.0005076253926879477 0.0055297166042161785
91369052 -0.0005030395993488998 0.005558180047169497
91398814 -0.0006915991850266588 0.005564530945566583
91428576 -0.000562152889001178 0.0055474123266175315
91458338 -0.0005181413046077864 0.005523136773076597
91488100 -0.0005527070293479524 0.00549635865642778
91517862 -0.00054935001682318 0.005473367801876259
91547624 -0.0005071947174976448 0.005450221004411884
91577386 -0.0005045874767435473 0.005428143293507852
91607148 -0.0005370383802042748 0.005402661301452412
91636910 -0.0005300757493926469 0.005377882459869631
91666672 -0.0004906173930080432 0.005357425458029153
91696434 -0.0004540816193717774 0.0053687274936181665
91726196 -0.0003431800838717144 0.0053878363139869415
91755958 -0.0002690774981351821 0.005401037891217628
91785720 -0.00023129248813689364 0.005411005370752987
91815482 -0.00012028782878009256 0.005421812166659748
91845244 -4.463489514780571e-05 0.005428157078976655
91875006 -4.781154997448708e-06 0.005435282461899279
91904768 -3.430057100669116e-05 0.005442882915977519
91934530 0.00015094616142734456 0.005445209723710901
91964292 0.00017767428094122342 0.0054574260715979
91994054 0.00021456717899735788 0.005478126940508018
92023816 7.8418768904631e-05 0.005504421218557423
92053578 0.0001795341277346795 0.00552177991735552
92083340 0.00013393039526683016 0.005554404612218996
92113102 0.00021818860077235904 0.00556843012968348
92142864 0.00018493999757033118 0.005592849404068621
92172626 0.00022075414312351516 0.005614710881736806
92202388 8.74804296640591e-05 0.005641649652768783
92232150 0.0001838282116649228 0.005636980001457923
92261912 6.473297306263023e-05 0.00558625102698441
92291674 0.00017994221133388336 0.0055333492655034976
92321436 0.00013069432582476598 0.005483647131103871
92351198 0.0001467970283591869 0.005432714692544143
92380960 0.00010049869110063866 0.005382009493100685
92410722 8.663050165382307e-05 0.005333193041384042
92440484 0.00010448062803360909 0.00528411336375435
92470246 8.932199524413292e-05 0.005236836125025834
92500008 5.16898905593103e-05 0.005183523449523153
92529770 4.886506337401886e-05 0.005208548084241733
92559532 7.521359559934397e-05 0.005227895029414969
92589294 4.363583449126416e-05 0.005247572990258361
92619056 7.074959619171406e-05 0.005265730426207789
92648818 6.775967716902017e-05 0.005287481547090594
92678580 3.620920078876943e-05 0.005307783466478521
92708342 6.29834910029262e-05 0.005328467700430749
92738104 6.18906976059144e-05 0.005347702773563264
92767866 3.0869285955315564e-05 0.005367485478855038
92797628 7.895793616641485e-05 0.005381897026167519
92827390 8.545346443053843e-05 0.005386199458092386
92857152 0.0001181898023332686 0.005396922066537275
92886914 7.345687937273443e-05 0.005404485708632698
92916676 0.00021350685180011671 0.005415338531060941
92946438 0.0002229055323863969 0.005422484911560899
92976200 0.0002256758508572675 0.005428564971305539
93005962 0.00021746035802551857 0.005431085720339499
93035724 0.0003126297855355301 0.0054422195726644895
93065486 0.00030687071008758985 0.005438329748511498
93095248 0.0004908666019789404 0.005427957896576529
93125010 0.0005483755811763918 0.005413473811867294
93154772 0.0006416050861262671 0.005406673422521487
93184534 0.000643242627190281 0.005384776125077446
93214296 0.0008288548021434575 0.005351500840446906
93244058 0.0007627535942162499 0.005365026789381992
93273820 0.0009306307620960814 0.005329788363004888
93303582 0.0010443597878638845 0.005291626282677344
93333344 0.0011483051557404926 0.00526176054479439
93363106 0.0010996522803442604 0.005273993852332445
93392868 0.0010308937405856847 0.005285088712427297
93422630 0.0009848965278666853 0.0052925272401107455
93452392 0.0009604358402568624 0.005297256038080002
93482154 0.0008906391210887086 0.0053000149803933945
93511916 0.000846998580632905 0.005308475060098401
93541678 0.000782981490448015 0.0053164939438752395
93571440 0.0007480054237263849 0.005305134767903674
93601202 0.0007050399879566915 0.005305977395002382
93630964 0.0007655286679171334 0.005295403431056496
93660726 0.0007743141059867331 0.005287402190269006
93690488 0.000888528161586133 0.005266499606054594
93720250 0.0008986363683503074 0.005260075528674876
93750012 0.000995858332715038 0.005239544318163902
93779774 0.0010441641023868984 0.0052277030186463295
93809536 0.001067250303816863 0.005205010865153342
93839298 0.001169410300176043 0.00518714448544558
93869060 0.001237811025151403 0.005166411757487687
93898822 0.0013031454139925773 0.005141028925719493
93928584 0.0013097960213461785 0.005118290981713
93958346 0.0013474717503378045 0.005090806350727075
93988108 0.0013028746114944019 0.005066754320882488
94017870 0.0013791217519293364 0.005040072176248494
94047632 0.001352666078560145 0.005011580710525502
94077394 0.0014426826717624773 0.004981012578767368
94107156 0.0014519519734914838 0.004952119040024367
94136918 0.0014894246940427922 0.004922664449125885
94166680 0.0014979034167187826 0.004895586117457297
94196442 0.0015507767317727462 0.005133127634217882
94226204 0.0015524956613903744 0.005400914979852012
94255966 0.001664734991688506 0.0056910466353250425
94285728 0.0016930093201069248 0.006020589563708509
94315490 0.0017319779869617708 0.006394067854663663
94345252 0.001779659840767588 0.006814505483093123
94375014 0.0017728181955245308 0.007295014486341327
94404776 0.0017831886599043508 0.007845870481574852
94434538 0.0017373262264727244 0.00848039602344124
94464300 0.0017441341263007442 0.008202088243536146
94494062 0.001826359847226592 0.007518001380543569
94523824 0.0018611797844693958 0.006928823286187533
94553586 0.001858099411053671 0.006415115450204723
94583348 0.0018787219949058806 0.005961213002642839
94613110 0.0018530853862895628 0.005560706870797891
94642872 0.001838734139626026 0.005199572247242515
94672634 0.0018350181387629522 0.004877192696704108
94702396 0.0018147094480592634 0.004585329767307554
94732158 0.0017980555639736464 0.0043855747576351115
94761920 0.0018200539611753419 0.0043159384678373505
94791682 0.0018153147479201613 0.004252061131754157
94821444 0.0018674609946055956 0.004176386577134051
94851206 0.0018617824469029263 0.00411328047087667
94880968 0.0019203369647119188 0.004038694480329473
94910730 0.001934553300928646 0.003971219331530114
94940492 0.001962380770324389 0.0038988264605273344
94970254 0.0019525145392578 0.0038341862885900645
95000016 0.0019977032872456075 0.0037602274933306104
95029778 0.002000307974496613 0.003749807293361864
95059540 0.002045231521169549 0.0037318936958167337
95089302 0.002069604261459443 0.0037165730450053514
95119064 0.0021034276899952412 0.0036994839484758794
95148826 0.0021019605487218327 0.003682433348448486
95178588 0.0021471535796947355 0.0036554708064300435
95208350 0.0021746370003198935 0.0036359314741424608
95238112 0.0022031283368140796 0.0036111425458412796
95267874 0.00222528947927425 0.0035881423526214753
95297636 0.0022629506260604636 0.0035403962669275455
95327398 0.0023085723188241984 0.003483090577720417
95357160 0.002302208922107597 0.003441970070287385
95386922 0.0023667994433190093 0.0033694737803867435
95416684 0.00237020257744924 0.003320628366228637
95446446 0.0024251968495711948 0.0032475537942698077
95476208 0.0024242824262868255 0.0031982020726576683
95505970 0.0024843847156740466 0.0031176733304958282
95535732 0.0024802680821807968 0.003067941510609014
95565494 0.002514402415761522 0.0029896661044882997
95595256 0.002573913860850155 0.0029002165025843745
95625018 0.002615537551753686 0.002809179144852367
95654780 0.0026507438846026066 0.00271930517772951
95684542 0.00269405658008548 0.0026239555140322975
95714304 0.0027210222631923256 0.0025272971490465025
95744066 0.002763096520632192 0.0024267371765754353
95773828 0.0027832990587879935 0.002332392180636389
95803590 0.002814233375919488 0.002219196251901177
95833352 0.0028362298214245543 0.002116184803174082
95863114 0.002827049668289165 0.001990926355724078
95892876 0.0028147103229983665 0.0018754318783518345
95922638 0.0027982122787093347 0.0017519669522475187
95952400 0.002789244169474722 0.0016342395970400626
95982162 0.0027685894068810207 0.0015075689490262755
96011924 0.002559821628323016 0.0015896656505795387
96041686 0.0027106530311612267 0.0012584321098255032
96071448 0.0026779866699771456 0.0011369565148102478
96101210 0.0026307786987768565 0.0010406563697449487
96130972 0.002512248705271508 0.0011453497524229242
96160734 0.002608087006310472 0.0007708792943957553
96190496 0.002582800758403555 0.0006815330607735237
96220258 0.00255464084324816 0.0005612791752550468
96250020 0.002534308748114048 0.0004058889913436744
96279782 0.0024831444201146116 0.0003586775797239075
96309544 0.0024467300644995726 0.00018698685427105826
96339306 0.0024156099444921316 9.240847939502148e-05
96369068 0.002366705145982157 -2.9594235104306173e-05
96398830 0.0022962005820210776 -0.0001596403454676731
96428592 0.0022482884688496824 -0.00030376718188231225
96458354 0.0021778440742388078 -0.0004384196779523402
96488116 0.0019303077818209067 -0.0007545718985579751
96517878 0.002011271480171218 -0.0007025986451251706
96547640 0.001928249147335841 -0.0008339144208008145
96577402 0.0018427798915864946 -0.0009758625680949803
96607164 0.001731415597530086 -0.001111446734209643
96636926 0.0013951729171262626 -0.001384898661776005
96666688 0.0014951497589186465 -0.0013637852222278103
96696450 0.001357706503773011 -0.0014627727754533359
96726212 0.0012240746483026617 -0.0015620252404882878
96755974 0.00145459000206944 -0.0015811468615453497
96785736 0.0009236467302428753 -0.0017395484128788262
96815498 0.0012002401913070273 -0.0017953759131932815
96845260 0.0006420639333369829 -0.0018889516326374728
96875022 0.0004861995662917332 -0.0019516812955032204
96904784 0.00034106218172466645 -0.002016504956105898
96934546 0.00014140893950740385 -0.0020537744401299203
96964308 2.3486617301089082e-05 -0.0021263723116224566
96994070 -0.0001263414377461765 -0.0022000960151327157
97023832 -0.0007808196587915006 -0.0019407123200902712
97053594 -0.00042879349762391366 -0.00230453892455001
97083356 -0.0005761799800976531 -0.0023591116437926725
97113118 -0.00021229844588268587 -0.0027011458973198836
97142880 -0.0009148922343980252 -0.002439346927420042
97172642 -0.0015610422654650283 -0.0019717355859944392
97202404 -0.001220585567801691 -0.0025040306077390904
97232166 -0.0013869317932470424 -0.002511108523566821
97261928 -0.0015761704049961102 -0.0025197631973330184
97291690 -0.0017816629208809015 -0.002486942439534661
97321452 -0.0019475297249043474 -0.0024879299505954004
97351214 -0.0021300753160890975 -0.002473085603574004
97380976 -0.002308284886355424 -0.0024320529595007554
97410738 -0.0024901969335851394 -0.002369496180820306
97440500 -0.002667036047558772 -0.0023174148796784506
97470262 -0.003107651041327253 -0.0014386518795089043
97500024 -0.003007435772977433 -0.002202863528581479
97529786 -0.003167747560503234 -0.0021710726649654725
97559548 -0.003504148290633743 -0.0011683949000116391
97589310 -0.0035183144020978943 -0.002003441210359991
97619072 -0.0036798100362773183 -0.0018139662759022509
97648834 -0.003825103378765614 -0.0018605442981698514
97678596 -0.003988454702459378 -0.0017401868569943927
97708358 -0.004120456197517877 -0.0006559600481158867
97738120 -0.004265515266557265 -0.0015608573216544215
97767882 -0.00439641927570439 -0.0014495747590675104
97797644 -0.004447727583675872 -0.002342694285659647
97827406 -0.004595152185471675 -0.0011128130781546328
97857168 -0.004654883091718274 -0.0008712362810257926
97886930 -0.004726699491874688 -0.0006924890057175165
97916692 -0.004957745033108537 -0.0015119891229149883
97946454 -0.004835885885080921 -0.0003090462938757385
97976216 -0.005088582380638236 -0.001080361256413326
98005978 -0.004507426913507517 0.0009207158007520655
98035740 -0.004884568812509775 0.000254000913477393
98065502 -0.004944818008024169 0.0003494784559424087
98095264 -0.005044502616374729 0.0003738564505349102
98125026 -0.005129990027390096 0.0004321714759054559
98154788 -0.004765979583140687 0.0013001722703954637
98184550 -0.005331633743157809 0.0004875536873297945
98214312 -0.0054373705742753525 0.0005106835988459516
98244074 -0.00503028927322649 0.0013874066312351894
98273836 -0.005669630882921142 0.0004942477772070275
98303598 -0.005744114898960341 0.0005583563691548915
98333360 -0.005836651440214524 0.0005570575674362978
98363122 -0.005884991941212661 0.0006012385170652403
98392884 -0.005853295281937349 0.0007189062298710574
98422646 -0.005882128205671066 0.0007377644575505556
98452408 -0.0058852048215830115 0.0008150239113455133
98482170 -0.005861340827687167 0.0009151822218560035
98511932 -0.005873400905084301 0.0009416215682814618
98541694 -0.005216475936958916 0.001844379078559393
98571456 -0.005850624078211905 0.001065659863230964
98601218 -0.006392750966432702 0.0002783713298929388
98630980 -0.005809332497712076 0.0012684449910125976
98660742 -0.005793988230227755 0.001384221988699934
98690504 -0.00512657426549262 0.002231411744737115
98720266 -0.006411055162194233 0.0008282765026508584
98750028 -0.005753529231956773 0.0017490139592325185
98779790 -0.005763794782603245 0.0018509209446978306
98809552 -0.005758210588712215 0.0019407829310828628
98839314 -0.005710906045328707 0.002082433512602091
98869076 -0.005709988850689246 0.002169548473967475
98898838 -0.006360666915886682 0.0015905747079879495
98928600 -0.005660122483421495 0.002363014689112764
98958362 -0.006419463614797325 0.0017158228577579503
98988124 -0.005742281219322906 0.0024317998933022825
99017886 -0.005730903857491785 0.002650265760200807
99047648 -0.005777032921283511 0.0026531456280374623
99077410 -0.0056300472622418905 0.0027933746998864482
99107172 -0.0057541649626441 0.0027913782380713592
99136934 -0.005895210775998508 0.0027763890520033337
99166696 -0.0061072020289297405 0.002956080197717568
99196458 -0.00577031631515185 0.0029057446800480166
99226220 -0.005757402941781291 0.002928650064623088
99255982 -0.005764731280032751 0.0029297209801243847
99285744 -0.00576832250873185 0.0029546746842188023
99315506 -0.005704522211608862 0.002963240404185981
99345268 -0.005756332109431119 0.002956557451301093
99375030 -0.005763238472006443 0.002993530154244615
99404792 -0.005735482799892155 0.0029862222250905683
99434554 -0.005647456757438207 0.003010444134444205
99464316 -0.005679067602721563 0.0031035654738116388
99494078 -0.005658584459317608 0.003185210595821839
99523840 -0.0056471545928045465 0.003295602413798501
99553602 -0.005355063241089259 0.003471857161711519
99583364 -0.005973556072095617 0.0031499709831367866
99613126 -0.00445971066980205 0.004037712161527412
99642888 -0.0050980542465071865 0.0037731072068412416
99672650 -0.00501584705797281 0.003864691554478245
99702412 -0.00559326711273145 0.0036049088480416065
99732174 -0.00483685404123555 0.004021303908172003
99761936 -0.00471976510184585 0.004074965467184371
99791698 -0.005007350066347662 0.003936440935652035
99821460 -0.004979728590967527 0.003951273785246228
99851222 -0.005080750211739091 0.003892059668443625
99880984 -0.005764720495970279 0.0035433475288072745
99910746 -0.005077681518698739 0.003880786609775254
99940508 -0.005804851160414129 0.0035030554849845344
99970270 -0.00514530608422827 0.0038310088108234157
100000032 -0.005177988407990644 0.0038148353077699973
100029794 -0.00514912992061096 0.003837790711836596
100059556 -0.005127886868275548 0.0038723339836458127
100089318 -0.00511157420663201 0.00390348016861148
100119080 -0.005089853205419984 0.003933734872263835
100148842 -0.005069750212880877 0.003957689951409
100178604 -0.005055348680053023 0.00399476118857949
100208366 -0.0050283224313457985 0.004029875599452795
100238128 -0.005007590276956005 0.004050464156976252
100267890 -0.0049885224528137566 0.004079996183324175
100297652 -0.004974171931571499 0.004105362636952413
100327414 -0.004968477519273228 0.004129088916050234
100357176 -0.0049617221139222215 0.00414652684364485
100386938 -0.004957179009210978 0.004157712573445342
100416700 -0.004952049653134746 0.004180572986113247
100446462 -0.00494428770749088 0.004205497245370001
100476224 -0.004939022459338509 0.00421809266057061
100505986 -0.00494087011067889 0.004235553855345429
100535748 -0.004937576700300302 0.004246390669226644
100565510 -0.004946067477804869 0.004275532767526781
100595272 -0.004989513320140065 0.004318644562663007
100625034 -0.005034407021533008 0.004357741431693832
100654796 -0.005080740954322899 0.004398599825337078
100684558 -0.005124955094106554 0.004441511260184375
100714320 -0.005176943762780572 0.004489226343788651
100744082 -0.005225920604454418 0.004528972962709345
100773844 -0.005275564354393262 0.004568582680085991
100803606 -0.005337047800355968 0.004613622825721074
100833368 -0.0053884437670183695 0.004656610113870547
100863130 -0.005325012370768753 0.00466335002576533
100892892 -0.005264520267234991 0.004677000508332522
100922654 -0.00520140123054004 0.004680497292354168
100952416 -0.005147415375955585 0.004695134756343479
100982178 -0.005087344405645765 0.004703485274774571
101011940 -0.005034644738521468 0.0047111084269506505
101041702 -0.0049729653947664185 0.0047142649111503645
101071464 -0.004909178868668906 0.00472454923887719
101101226 -0.004849480391571656 0.0047317082096039725
101130988 -0.004834288246758575 0.00473173999811705
101160750 -0.004834164174543464 0.004731890632518374
101190512 -0.004824769134761156 0.00473871474856913
101220274 -0.004826703405725328 0.004740239823182312
101250036 -0.004820875240249774 0.004738016380186921
101279798 -0.004814868468122374 0.004742998426636304
101309560 -0.004819247773124291 0.0047405318414367415
101339322 -0.00481860365154175 0.004744668822901661
101369084 -0.004812981488609164 0.004743144525383568
101398846 -0.004782280717675201 0.004772264232192404
101428608 -0.004729210196780534 0.004843370739866114
101458370 -0.004669966374703134 0.004920348704703593
101488132 -0.004619529456769497 0.004989409326191629
101517894 -0.004550753101627393 0.00505813091455558
101547656 -0.00449105683961123 0.005129498866590075
101577418 -0.0044325688216862195 0.005200632876402943
101607180 -0.004368681416182683 0.005265516019053554
101636942 -0.004299836323754104 0.0053341408140827615
101666704 -0.004229673492604076 0.0053958886858406436
101696466 -0.004314228977542241 0.005345241827418323
101726228 -0.004398023224341872 0.005287815580722749
101755990 -0.004470432019045554 0.005231269516759076
101785752 -0.004546256239225273 0.005165482607356323
101815514 -0.004623463205697935 0.005098152791373853
101845276 -0.004696691356648521 0.005041376750217261
101875038 -0.004766330959689589 0.004967556756132173
101904800 -0.0048374743826549394 0.004888512326977562
101934562 -0.004899191353168957 0.004814661785785544
101964324 -0.004868347155074275 0.00483639283975931
101994086 -0.004786526644677895 0.004891997458083036
102023848 -0.004722001092557948 0.004936775516783694
102053610 -0.00463848369537166 0.004998414498022085
102083372 -0.004615289231603562 0.005051450085115399
102113134 -0.0044624452755400385 0.0050987799353853485
102142896 -0.004380370125032861 0.005154364775004808
102172658 -0.004235424424308853 0.00519164243860204
102202420 -0.004149072790975524 0.005236803363772328
102232182 -0.004177276723817603 0.0052764221293228695
102261944 -0.0042928693511705895 0.005296839865944462
102291706 -0.004344010964449255 0.0053263231844751695
102321468 -0.004486251545335019 0.0053556995087917095
102351230 -0.004525494666261166 0.005359729490786594
102380992 -0.004613100619140015 0.0053802191660858945
102410754 -0.0047122696931712685 0.0053920838291255865
102440516 -0.004807856190442908 0.005405443126386421
102470278 -0.0049121678709069605 0.005412141924980583
102500040 -0.0050129880310803955 0.005423736688419148
102529802 -0.004958674662476031 0.005444616272746894
102559564 -0.0048979852795043785 0.0054763096737581165
102589326 -0.0048459757525456245 0.0054959263780175955
102619088 -0.004789885784105243 0.005518140243159901
102648850 -0.0047308336110601385 0.0055481913010339496
102678612 -0.004674030939876165 0.00556251287175947
102708374 -0.004615504891105537 0.005588435640847552
102738136 -0.0045619899457192675 0.005613293161515946
102767898 -0.00465721782579592 0.005724323987146675
102797660 -0.004472300653947983 0.005621531121727789
102827422 -0.004458899177031107 0.0055935974974901555
102857184 -0.004440061039021533 0.00556923210439251
102886946 -0.004426733268209937 0.005551089936019876
102916708 -0.004410136756993567 0.005528297216603517
102946470 -0.004390350846370793 0.005497297415163683
102976232 -0.004372649378532921 0.005479103547955254
103005994 -0.0043553261441534145 0.005454476654271941
103035756 -0.004339543291999231 0.005428610949578186
103065518 -0.004329646939845455 0.0054244803548624924
103095280 -0.004331271835312516 0.005456377677304965
103125042 -0.004334487427313568 0.0054791478830659044
103154804 -0.004338180373895432 0.005509616953653145
103184566 -0.004339225576825397 0.005535217049992685
103214328 -0.004343567194504715 0.005566912137854921
103244090 -0.00434743326935067 0.005598868743247402
103273852 -0.004350765552547944 0.005625284710384656
103303614 -0.004355555212103403 0.0056566893265424375
103333376 -0.004352041774333779 0.005684179649704172
103363138 -0.004266813751594642 0.00569474797629225
103392900 -0.004180538375546257 0.005694574930756936
103422662 -0.004082805496384028 0.005701906848568374
103452424 -0.003992624200864505 0.005699821549240999
103482186 -0.0039142677028479135 0.005699199807427346
103511948 -0.003826015830553793 0.00569683323748688
103541710 -0.003742388605929615 0.005699109917530117
103571472 -0.0036555579611494294 0.00569193161539804
103601234 -0.0035763041613930103 0.005690473359250251
103630996 -0.003584298747369856 0.005685029507971808
103660758 -0.0036184330191187 0.005675348982687389
103690520 -0.003669402691588991 0.005669718288604123
103720282 -0.0037118064449701586 0.0056616272524211515
103750044 -0.003756029669686373 0.005654349404287586
103779806 -0.0038010023848696704 0.005642872368420947
103809568 -0.003851168751285496 0.005630438002565483
103839330 -0.0038882668385813194 0.00562075406296564
103869092 -0.003940073859162056 0.0056095076824988115
103898854 -0.003981096809620984 0.005602632645740465
103928616 -0.004019671112577394 0.005627434988617371
103958378 -0.004057925679576342 0.005651170966325471
103988140 -0.004090931725106027 0.005671825193547819
104017902 -0.004139289285948588 0.005693835469661577
104047664 -0.00418824106517779 0.005721184085157438
104077426 -0.004225091014780666 0.005738460918680779
104107188 -0.004270828222498701 0.0057588943694312465
104136950 -0.004311327162529958 0.0057849355564922435
104166712 -0.004355111493524993 0.005801436828858306
104196474 -0.004348944145685188 0.0058490142045511725
104226236 -0.004335432316226276 0.00589630337330735
104255998 -0.004326047781355571 0.005949077743943632
104285760 -0.004309645210230782 0.0059926302267631045
104315522 -0.004299887345897359 0.0060364050808068585
104345284 -0.00429103946157189 0.0060884560078820335
104375046 -0.004278234579886724 0.006137098943793002
104404808 -0.00426734927733572 0.0061883571082014905
104434570 -0.0042508904334754285 0.006236306122101581
104464332 -0.0042383892124356354 0.006211172240071214
104494094 -0.004227440037984903 0.006159124658712612
104523856 -0.0042109072276999985 0.006104078927512921
104553618 -0.0042004326571393755 0.006051386349407656
104583380 -0.00418710820702148 0.005998185011803497
104613142 -0.004169976519385392 0.005942512058195393
104642904 -0.004156860874238237 0.0058930526275174115
104672666 -0.004113207609773272 0.005842783926931313
104702428 -0.004099790582390598 0.005791972931255056
104732190 -0.0040816061229911405 0.005782052323879563
104761952 -0.004070024390498424 0.0058574892692644645
104791714 -0.004054775386906519 0.0059308686564758725
104821476 -0.004038473260036497 0.006004742216356882
104851238 -0.004018302947081664 0.006082118121974808
104881000 -0.004027598246256357 0.006157512977906449
104910762 -0.004006640700945959 0.0062406626841638385
104940524 -0.003985406141520284 0.0063166315939201505
104970286 -0.003964154221153801 0.006398612608716015
105000048 -0.003930943545095544 0.0064818651643371045
