# HZ S RI R 50
90000000 -0.0007866492682193976 0.005461179686068915
90029762 -0.000630022422057189 0.005463861181099351
90059524 -0.0009981562068699962 0.005518941134924281
90089286 -0.0008634658445490032 0.005559555448422184
90119048 -0.001051318616091412 0.005581528494306527
90148810 -0.0009187478331021822 0.0056243752483873645
90178572 -0.0009129535121463468 0.00565020732705227
90208334 -0.000923454281690342 0.0056932007532955
90238096 -0.0012040319533751327 0.005717599885121909
90267858 -0.001072157452924709 0.00576314621195573
90297620 -0.001028905293169055 0.0057357483037953445
90327382 -0.0009481719592966998 0.005694553476548548
90357144 -0.0009754250671701637 0.005646265808048956
90386906 -0.0008949188446635018 0.005604957159416449
90416668 -0.0009607775023628342 0.005514558289771408
90446430 -0.0008950632606579791 0.005519334107681722
90476192 -0.0008207215742582317 0.005476007852791779
90505954 -0.00079621886655917 0.0054360461528487605
90535716 -0.0008210925533416192 0.005390975326406512
90565478 -0.0007450668584582869 0.00537285574851783
90595240 -0.0007586580079775543 0.005386258803773835
90625002 -0.0007211668866092851 0.005399179090934553
90654764 -0.0006386243566933716 0.005414118983704653
90684526 -0.0006006960384803568 0.005426923387422953
90714288 -0.0006088079615884365 0.00544115234503856
90744050 -0.0005720647523921119 0.005456972196984418
90773812 -0.0004886367653593166 0.00546565754584252
90803574 -0.0004952751371911482 0.00547848879923679
90833336 -0.0004126790574585798 0.005491485276725854
90863098 -0.000388483783757012 0.005468392742410424
90892860 -0.0004102425340970522 0.005444164332540745
90922622 -0.00034007612360125356 0.005421375177032959
90952384 -0.0003198117665350538 0.005399154129324655
90982146 -0.0003390530708263612 0.0053755143541623016
91011908 -0.0002715773211408763 0.005352428760636595
91041670 -0.00029090627584477254 0.005328082720412823
91071432 -0.0002690348695047489 0.005304769199763945
91101194 -0.0003710572797857543 0.005283676413368286
91130956 -0.00021888646470499479 0.005294899743108135
91160718 -0.00028674338222471423 0.005323869735311527
91190480 -0.00031511907496356003 0.00535741460857854
91220242 -0.0004692359489452461 0.005387451433640612
91250004 -0.0003777613245076727 0.005416556667359336
91279766 -0.0005323135372763231 0.005445542874477883
91309528 -0.0003979620523900991 0.005478054198041674
91339290 -0.0004736966845018887 0.005509274275962122
91369052 -0.00046839738538624094 0.005538764825383525
91398814 -0.0006542989987202674 0.005543851132491121
91428576 -0.000525215126632927 0.005523314545431016
91458338 -0.0004826288460711893 0.005499982857647233
91488100 -0.000518169611569029 0.005474169375136057
91517862 -0.0005139399482537094 0.005451982102923523
91547624 -0.00046946856636722505 0.00542627716703575
91577386 -0.00046529969179033267 0.005403892707028737
91607148 -0.0004979846541186481 0.005379800092680861
91636910 -0.0004929978533271617 0.005353470317830357
91666672 -0.0004496431670631392 0.005333194094450242
91696434 -0.00041387609097198394 0.005345874989022053
91726196 -0.0003041367851147476 0.005360686190678583
91755958 -0.00023249567871683316 0.005373530595672955
91785720 -0.00019143723120791542 0.005385280178893712
91815482 -8.044138721096702e-05 0.0053928518511577855
91845244 -5.106970708063036e-06 0.005403228597699431
91875006 3.4686864413264715e-05 0.005407203881344903
91904768 9.618827542539438e-06 0.005411535573737166
91934530 0.00019287685823516978 0.005413344773327173
91964292 0.00021829386573732405 0.005426680313112558
91994054 0.0002550011106607073 0.005447745744693623
92023816 0.00012166835414891656 0.005475498137666091
92053578 0.00023007969718454494 0.005491013509721831
92083340 0.00022749221459760855 0.00551583278266867
92113102 0.00026479968913619795 0.005535456901016083
92142864 0.00023354976925491129 0.005560341387271134
92172626 0.00026770675188071837 0.005577914806006177
92202388 0.00013496911520938755 0.005605045045471427
92232150 0.00023287048742743445 0.005601999618665293
92261912 0.00011691324757485571 0.005550639361445692
92291674 0.00023135643040061196 0.005494722686066915
92321436 0.00018026413941555898 0.005449092965313794
92351198 0.0001977670027111801 0.00539561807627365
92380960 0.0001676337374581816 0.005343930671809871
92410722 0.00013899748243065383 0.00529518423930682
92440484 0.00017459070675019498 0.005244383392498133
92470246 0.00014634653639000064 0.005199520252813464
92500008 0.00012112414558834807 0.005147672692593284
92529770 0.00010248565668546064 0.005170174220511347
92559532 0.00012965905096731518 0.00519039770688831
92589294 0.0001016821508723423 0.005208789056242726
92619056 0.00012755514685305604 0.0052284981131275506
92648818 0.0001266279852132874 0.005250733532542977
92678580 9.945197743060944e-05 0.0052657820521584365
92708342 0.00012493013087997294 0.005289238301756432
92738104 0.00012242416984394004 0.005308977552469824
92767866 9.520379611813901e-05 0.005326255112188118
92797628 0.00014437705189978398 0.0053391593804651225
92827390 0.00015261134732106325 0.005346241436632068
92857152 0.00018789926855243867 0.00535472370041096
92886914 0.0001418125076281546 0.005355304344850499
92916676 0.0002824222158847739 0.005367582086325339
92946438 0.00029278732368886356 0.005373319341434297
92976200 0.00033344436163212536 0.005377549437956622
93005962 0.00029030655101933833 0.005380895786209373
93035724 0.00035870784992061543 0.005409380215350243
93065486 0.00038130419701290383 0.0053824164801974245
93095248 0.0005163146275349381 0.005390711584154484
93125010 0.0006238944169075244 0.005359475861951113
93154772 0.0007475725297952364 0.005334321539923402
93184534 0.0007511173925043801 0.005319358758679935
93214296 0.0008709221419227122 0.005302853118393903
93244058 0.0008867518931928457 0.005278963753911293
93273820 0.0010540836269514438 0.005245378443009176
93303582 0.0011218001760767737 0.005221687516447102
93333344 0.0012250046122555828 0.005189327046730889
93363106 0.0011809367466859614 0.005201673448239109
93392868 0.0011126758824991734 0.005213936112033285
93422630 0.0010690374177382673 0.00521742465708945
93452392 0.0010451959027676565 0.005223922005027116
93482154 0.0009761485316217502 0.005229067894011868
93511916 0.0009555306481879791 0.005231789774615758
93541678 0.001002622208970847 0.005201226288384524
93571440 0.0007963719917655176 0.005252486638793598
93601202 0.0008200474446949869 0.005231165400474248
93630964 0.0008462554901154608 0.005221247981595229
93660726 0.000894146714824325 0.005207532397429212
93690488 0.0009735472922944873 0.00519034745697164
93720250 0.0010512201018170791 0.005170610916333276
93750012 0.001083113220282766 0.00515745050743173
93779774 0.0011674267841412385 0.005135642741797487
93809536 0.0011584463129792632 0.0051168032848190196
93839298 0.0012781976812595703 0.005095800188135791
93869060 0.0013423540189871897 0.005067418993002435
93898822 0.0014125927868838682 0.005043127683601237
93928584 0.001419098171392335 0.0050141661724889975
93958346 0.001462495783388691 0.004984950692983652
93988108 0.0014179720143485443 0.004959964048385136
94017870 0.0014948794721370252 0.0049270970592908735
94047632 0.0014717299639734355 0.004902366275008538
94077394 0.0015584095070317575 0.004865697003563922
94107156 0.0015719477183093193 0.004839070117237432
94136918 0.001614638697399239 0.0048023268523153554
94166680 0.0016244296181260973 0.0047751354516039415
94196442 0.0016666104210171036 0.005008439926970887
94226204 0.0017180727013727378 0.005257214659904935
94255966 0.0018016128446712743 0.00554602871652767
94285728 0.0018842006880553925 0.005857224236562971
94315490 0.0018993928274630026 0.00622878699126125
94345252 0.002011742254834391 0.006626748126732019
94375014 0.00197505985925736 0.007100281828446314
94404776 0.002065280813844342 0.007627698196302584
94434538 0.0020247056841584373 0.008250536321676834
94464300 0.0020287251533407133 0.007968770164491889
94494062 0.002092135706805584 0.007294478395237749
94523824 0.0021037522979571546 0.006715971583426665
94553586 0.002090673143395872 0.006202251877285448
94583348 0.0020918415289964735 0.005747150698549727
94613110 0.002059302781323181 0.005352331017264298
94642872 0.0020324932040745192 0.004997632164927129
94672634 0.0020207837438629378 0.0046789748699463335
94702396 0.0019909525686134717 0.004388013313590926
94732158 0.0019717255810749856 0.004190787492183164
94761920 0.001997399252340705 0.00411125142715363
94791682 0.0019930238621162495 0.0040474810377712465
94821444 0.002045127210880771 0.003966382633946378
94851206 0.0020452645467765223 0.0038951501520148087
94880968 0.0020991845041756886 0.0038127569046011497
94910730 0.002114235825588288 0.00374290865642181
94940492 0.002145581043066337 0.00366200481768614
94970254 0.0021369472604425024 0.0035954665231645905
95000016 0.00217958471917968 0.003514584123960242
95029778 0.00218790629289296 0.0034973680491467707
95059540 0.0022386295881451908 0.0034641185652199784
95089302 0.002264590710641815 0.003442091749698665
95119064 0.002303163547371142 0.0034127021288220933
95148826 0.0023082952316926418 0.0033893312673146385
95178588 0.0023588059125373177 0.0033502771272239207
95208350 0.0023925094692197678 0.0033195736538631027
95238112 0.0024265091852572794 0.0032784365287768604
95267874 0.0024537673553749655 0.0032437046319633797
95297636 0.0024869069087372314 0.003188041204081417
95327398 0.0025203974956761934 0.0031158278928651363
95357160 0.0025485803749557127 0.0030527511267149574
95386922 0.0025794693253779286 0.002979592661881698
95416684 0.002615539193417797 0.002906248236839226
95446446 0.002642626369706191 0.0028335507086525457
95476208 0.002676904813719988 0.0027518030076988356
95505970 0.0027002236649819036 0.0026727134057864302
95535732 0.0027288483013674526 0.0025878914912641536
95565494 0.0027647923438144303 0.002490906690145456
95595256 0.0028010183871674146 0.002387766035619526
95625018 0.0028380309384575184 0.0022795135678295936
95654780 0.002872893841855728 0.0021622309326877406
95684542 0.0029045438044651944 0.0020520640950294363
95714304 0.0029320766652061736 0.0019299672254553338
95744066 0.0029495878732687946 0.0018046916511558983
95773828 0.0029706372485775907 0.0016828358716637999
95803590 0.002987903366092546 0.0015484823817550398
95833352 0.0029999737636662045 0.0014146522050690687
95863114 0.002975323060900793 0.001271395080400031
95892876 0.002946228643147735 0.0011381185064165396
95922638 0.002917079525487127 0.0009982090417285908
95952400 0.002886116712587405 0.0008573169881607841
95982162 0.002847467930900739 0.0007216947434728728
96011924 0.0027285919191349707 0.0008356281746329164
96041686 0.0027548553758210406 0.0004379022069727836
96071448 0.0027092066434564227 0.0002943644370063312
96101210 0.00264710971330192 0.0001439252706555726
96130972 0.0026210736805484503 0.000312995587273449
96160734 0.0025595116804218105 -0.00011985776455598726
96190496 0.002488138929844601 -0.00031527879920083463
96220258 0.0024332179920333874 -0.0004248735957421305
96250020 0.0024006799081910486 -0.000522075395681931
96279782 0.0023103981553516937 -0.0006996503964923923
96309544 0.0022448239487457846 -0.000825772750744601
96339306 0.002160063956432099 -0.0009575173588804185
96369068 0.002075192345972172 -0.001113634807831499
96398830 0.001979899727397365 -0.0012644357726531437
96428592 0.0018912065023423685 -0.0013760319539668506
96458354 0.0017442895889040117 -0.0015661644960227215
96488116 0.001166688286059707 -0.0018292352368024334
96517878 0.0014580274534843943 -0.0018529301487000933
96547640 0.001314311029612896 -0.0019941154511388323
96577402 0.0011812540166729459 -0.0021517700658202047
96607164 0.0009749124145692761 -0.0022637870179259352
96636926 0.00022019647631656597 -0.0023152858158485778
96666688 0.0006039137914443353 -0.0025020627514635418
96696450 0.00040270059839948494 -0.00258893962985199
96726212 0.00022925070285420584 -0.0026502663454530196
96755974 0.0006754783920211232 -0.002838928379576156
96785736 -0.0001521933359967908 -0.00276270873940783
96815498 0.0003220202829412887 -0.0030171973742298686
96845260 -0.0005332536082605841 -0.0028273485644525705
96875022 -0.0007240721092612647 -0.0028692862863352645
96904784 -0.000912330596856817 -0.0028792476772381455
96934546 -0.0011381086375396577 -0.002865453289318617
96964308 -0.0013065828435808724 -0.002892836438486715
96994070 -0.0014892146445550924 -0.0029124328395421528
97023832 -0.0022096749082896605 -0.002266874537247121
97053594 -0.0018645733989857882 -0.0029412322930783613
97083356 -0.002035464593246008 -0.0029522986806719857
97113118 -0.0015989208422954456 -0.003603406099410925
97142880 -0.002431130412231506 -0.0029126146501140516
97172642 -0.003011297101416319 -0.002021224964946117
97202404 -0.0027457074143529816 -0.002883537051294674
97232166 -0.002952411701107418 -0.0028013432002217367
97261928 -0.0031364988231784292 -0.0027657957808674798
97291690 -0.0033493408570803383 -0.0026615950425662423
97321452 -0.003540894619650034 -0.002577562864152133
97351214 -0.003710088893495257 -0.0025010924134040565
97380976 -0.0038740107430411735 -0.00241268113740816
97410738 -0.004065754441575277 -0.0022753642176700337
97440500 -0.0042088818285083655 -0.002156119554655881
97470262 -0.004380445629604899 -0.0009495290809841245
97500024 -0.004515880090810848 -0.001920700247448621
97529786 -0.004658353825615258 -0.0018452591345090772
97559548 -0.004697105190652252 -0.000564920332006651
97589310 -0.004953978139799252 -0.0015552986160638144
97619072 -0.00506756361426347 -0.0012922259843368322
97648834 -0.005197315609147199 -0.001322788160217062
97678596 -0.005320940481716454 -0.001159426337144014
97708358 -0.0051255884587949295 8.839724904228376e-05
97738120 -0.005541845999144177 -0.0008834276272696599
97767882 -0.005645303223999535 -0.0007408385882138222
97797644 -0.005974837717098949 -0.0017552104808597334
97827406 -0.005723801762825278 -0.0003485185630050995
97857168 -0.0057137099673367844 -9.661639125879703e-05
97886930 -0.005715524786762269 0.00012985893795993946
97916692 -0.006151466088088907 -0.0007208726114706431
97946454 -0.00569076910761362 0.0005420651711669156
97976216 -0.006172722883142183 -0.00025458715822818367
98005978 -0.005046742079789494 0.001727653797027614
98035740 -0.005584473261248887 0.0010955909164206744
98065502 -0.005607063911783856 0.0011906222175548302
98095264 -0.005706300503593471 0.00122811515377733
98125026 -0.00577235101111953 0.0013099208861593718
98154788 -0.00520843110909815 0.0021096345514129817
98184550 -0.005965146866808883 0.0013671666537180686
98214312 -0.006069238706988449 0.0014025329084330785
98244074 -0.005445470440873691 0.002216482641677289
98273836 -0.006284744155369869 0.0014042637794140231
98303598 -0.006353453064437073 0.0014836447061037181
98333360 -0.006444674111845112 0.0015035347193995156
98363122 -0.006460851610292576 0.0015189388234871039
98392884 -0.006408938075867415 0.0016297876679697211
98422646 -0.006417593728423839 0.0016446511110072247
98452408 -0.006395655899584781 0.0017053453337869595
98482170 -0.00632166496195667 0.0018153303864431574
98511932 -0.006340117768558179 0.0018195734906854472
98541694 -0.005499605686240997 0.002615179620805935
98571456 -0.006250525005113238 0.0019660830638467694
98601218 -0.006965054055010336 0.001227499539545629
98630980 -0.006185395963114937 0.002110883319760198
98660742 -0.006147477577159045 0.0022384212719504036
98690504 -0.0053225087911078686 0.002964278309931413
98720266 -0.006857549667945876 0.00176355495366754
98750028 -0.006027756327429304 0.0025668729816135404
98779790 -0.00598623147837581 0.002677983732838818
98809552 -0.005992262679254595 0.002740161763877701
98839314 -0.0058895713854504594 0.002869287384214122
98869076 -0.00590193689826713 0.0029379370623670675
98898838 -0.006613885396303185 0.0024856029437118616
98928600 -0.005805573312267039 0.003105128595431389
98958362 -0.006632498217059885 0.0026040124000109876
98988124 -0.005887961087985403 0.0031875364503862764
99017886 -0.0058352991008989346 0.0032291285221428675
99047648 -0.00589782085471237 0.003237362805907483
99077410 -0.005852868101545168 0.0033196896510981613
99107172 -0.005863419039327378 0.0033643221705471804
99136934 -0.005928877875629421 0.003385589542347755
99166696 -0.006019885317838195 0.0033938399071154293
99196458 -0.005860887749305997 0.003475549080897699
99226220 -0.00584398527311436 0.0034913892961590605
99255982 -0.005895460328182807 0.0034709913557210473
99285744 -0.00581565653233353 0.003514165803372617
99315506 -0.005850167696657849 0.003490869389251848
99345268 -0.005835272473329754 0.0034933239040749733
99375030 -0.0057643651602535375 0.0035375834508750616
99404792 -0.0058096574393375336 0.003513425739261217
99434554 -0.005797449361750773 0.0035171089015886845
99464316 -0.005671183252036453 0.0036282442138004176
99494078 -0.005642557044734703 0.0037009397764184958
99523840 -0.0054861990749777495 0.0038305698902275777
99553602 -0.005394739160079382 0.003947468044175773
99583364 -0.006037803191303598 0.003687099195804739
99613126 -0.00444556835725398 0.004444037156127412
99642888 -0.005270064905740524 0.004170384461131012
99672650 -0.005013111069859873 0.00430756966440659
99702412 -0.005618712480093041 0.0041056893219157285
99732174 -0.004864823034476448 0.004436291362446918
99761936 -0.004707471128101297 0.004489403604115637
99791698 -0.005165698257601486 0.004336488625249602
99821460 -0.004975124378435048 0.0043779936535804755
99851222 -0.005072066327906502 0.004336664471786917
99880984 -0.005751486844994084 0.004056745222435717
99910746 -0.005107431166627035 0.00429921020348105
99940508 -0.005822216780985239 0.0040108560312977146
99970270 -0.005136325452543135 0.004265628163011473
100000032 -0.005202832205269494 0.00424834006162997
100029794 -0.005169497729647032 0.004271078499264392
100059556 -0.005150862665340635 0.004300943203228759
100089318 -0.0051262994611516515 0.004322369276267661
100119080 -0.005106225480244512 0.004362464466960578
100148842 -0.0050855123937347 0.004387862063748271
100178604 -0.0050219059010504575 0.00441971335376042
100208366 -0.004998764735701191 0.004454561711163323
100238128 -0.004977405736140928 0.004475749391193734
100267890 -0.004948277919567598 0.004502031924496148
100297652 -0.004939634120184412 0.004516664470565593
100327414 -0.004931217950418166 0.004538804244400727
100357176 -0.004919267833990214 0.004551140135326682
100386938 -0.004916637428648061 0.00456670653562671
100416700 -0.004912880300727232 0.004578695515740539
100446462 -0.004895117738232064 0.004601145845028033
100476224 -0.004887164179243215 0.004622304662119258
100505986 -0.004885570833646489 0.004633512178266279
100535748 -0.004876326442359601 0.004647155925164999
100565510 -0.004882227998276354 0.00467287038123685
100595272 -0.004926065535264211 0.004719525954127699
100625034 -0.004978124493852174 0.00475582501501093
100654796 -0.005023745755009041 0.00479909269691585
100684558 -0.0050637628772381834 0.004843404081288635
100714320 -0.005119635655858607 0.004889456072533955
100744082 -0.005162465830502165 0.0049309703008642205
100773844 -0.005212734337078919 0.004977046435031192
100803606 -0.005270115263627445 0.005013800939432338
100833368 -0.005322705487977361 0.005059063393392438
100863130 -0.0052546169571330344 0.005071468226283138
100892892 -0.00518172347715674 0.0050755228288533166
100922654 -0.00512189414529504 0.005080310029256294
100952416 -0.005062148068454365 0.005084957722835941
100982178 -0.004996520801332884 0.005086525586948214
101011940 -0.004938243360324868 0.005089778160114008
101041702 -0.004880260572375644 0.005095709088667401
101071464 -0.004823620560779972 0.005087833906358382
101101226 -0.00475748986433604 0.005090261098160549
101130988 -0.004740134451509554 0.005092505869614476
101160750 -0.004735243729931513 0.005089446197377949
101190512 -0.0047261249027767014 0.005095590066661055
101220274 -0.00472228545363518 0.005091638070894006
101250036 -0.00472410883587627 0.00509604255438713
101279798 -0.004718937125355424 0.005092669293542864
101309560 -0.0047160053201490745 0.005095677599587506
101339322 -0.004711955492051014 0.005088248033290489
101369084 -0.004707485426792747 0.005088818656604109
101398846 -0.004683674341080647 0.005110380103494544
101428608 -0.004629235933780744 0.005179036441185705
101458370 -0.004563335856557784 0.00524999500996419
101488132 -0.004496577829575471 0.005323735998679399
101517894 -0.0044289471757535314 0.00539235540516577
101547656 -0.0043709495086802315 0.005461819432676289
101577418 -0.004299135472535282 0.005520392511105967
101607180 -0.004227356402302649 0.00559149964853681
101636942 -0.004155359971389407 0.005650126731854948
101666704 -0.004086039642962914 0.005713890335546204
101696466 -0.004166962884437766 0.005658329897741005
101726228 -0.004260021553920291 0.005608775771713613
101755990 -0.00433560551293226 0.005544449267976301
101785752 -0.004421091594711822 0.005484597053875119
101815514 -0.004499609829759621 0.005423553582264213
101845276 -0.004576060127450402 0.00535145359691787
101875038 -0.004652562829395354 0.00527624690068969
101904800 -0.0047218207417763815 0.005209980253400454
101934562 -0.004794420683809724 0.0051324604249749824
101964324 -0.004761353287139321 0.005137968347319674
101994086 -0.0046692976458479 0.005202366103673142
102023848 -0.0045803154301853905 0.005264462830195316
102053610 -0.0044896319592522115 0.005313673747839683
102083372 -0.004404064730594263 0.00536806484732768
102113134 -0.004309917059296558 0.005405920536600629
102142896 -0.004221082768742049 0.005457400325978435
102172658 -0.004129920394059845 0.00549614479693836
102202420 -0.0041562592527522955 0.005534233535489529
102232182 -0.004005034577840043 0.005572638523043684
102261944 -0.0040859818124059305 0.005596154050815733
102291706 -0.0041809352562097325 0.005612601720214593
102321468 -0.004200280137921264 0.005636739541131378
102351230 -0.004296261938871412 0.005658916086067208
102380992 -0.004570874501440843 0.0056826769468955145
102410754 -0.004546133213397175 0.005697430936806424
102440516 -0.004644294322051026 0.0057166587750148235
102470278 -0.004745246546758147 0.005730961357289693
102500040 -0.0048517587796174915 0.005740181580696786
102529802 -0.004786502252066821 0.005759852889163955
102559564 -0.004728541131018543 0.005780526618104678
102589326 -0.004732751818807865 0.00580126774112145
102619088 -0.004611614127292218 0.005823092614880697
102648850 -0.00449467379450199 0.005841314868038205
102678612 -0.004492783735640663 0.005861892881029717
102708374 -0.004434690279717207 0.005882551460201781
102738136 -0.004377504070656097 0.005899221515078892
102767898 -0.004321397618455043 0.0059104155188623685
102797660 -0.004288063713371508 0.005905909799846123
102827422 -0.004264216170372288 0.005876739917790086
102857184 -0.004255346336196612 0.005848824145760676
102886946 -0.00423717391442013 0.005815909052088834
102916708 -0.004224254635269307 0.005787291057396899
102946470 -0.004200753921948605 0.005762628222829713
102976232 -0.004189267185557814 0.005740748470465553
103005994 -0.004171341146365708 0.005711761841015133
103035756 -0.0041557522156585435 0.005683459485888042
103065518 -0.004143568162272645 0.005676883782382389
103095280 -0.004144970020247117 0.005708713522408751
103125042 -0.0041467010955153144 0.005730565934217625
103154804 -0.004147336609328858 0.005763878328596532
103184566 -0.004154296046519587 0.005790242394463614
103214328 -0.004153140134440627 0.005820548791916936
103244090 -0.004150395422227145 0.0058458995101196036
103273852 -0.004156410977421088 0.005872246243888453
103303614 -0.004149825756789634 0.005901176484512619
103333376 -0.004153703729423062 0.005927124233207974
103363138 -0.004064266469498931 0.0059281430788264275
103392900 -0.003973189539704699 0.005930699428043885
103422662 -0.003881976384703686 0.005928321134738884
103452424 -0.003793652938693102 0.0059272707348681656
103482186 -0.0037076406511247716 0.005916535305326021
103511948 -0.0036239188862371217 0.005912447760038475
103541710 -0.0035337148485397193 0.005905921158868331
103571472 -0.003452455424424652 0.005897606556816915
103601234 -0.0033689235288257282 0.00588471942758976
103630996 -0.0033685800836670875 0.005879696583672087
103660758 -0.003416171433697064 0.0058738948886469305
103690520 -0.0034603883192730915 0.0058700127704162195
103720282 -0.0035011344442865307 0.005861492096479538
103750044 -0.0035527259442879257 0.005847778533514827
103779806 -0.0035988954931751474 0.005840813326150279
103809568 -0.0036410021262798476 0.005832028217243899
103839330 -0.0036873482472874865 0.005820181479410849
103869092 -0.003735568781115824 0.005807810648306554
103898854 -0.0037805770661641573 0.005806637554282293
103928616 -0.0038156538204666395 0.005827570522975645
103958378 -0.0038555990418508482 0.005851525355764836
103988140 -0.0038965234068012965 0.005875704448338225
104017902 -0.003932429838957299 0.005896166298256823
104047664 -0.003973674663471975 0.005919880567985612
104077426 -0.004018053807448646 0.005940775912900951
104107188 -0.004059200296629402 0.0059589944134625285
104136950 -0.004102458365234861 0.005986048801451223
104166712 -0.004145234661794258 0.0060068445389430515
104196474 -0.0041332281052563445 0.006051611037362436
104226236 -0.004118893638220804 0.00609803624891462
104255998 -0.004108257371111751 0.006139916242139796
104285760 -0.004094579815553582 0.006191242459720373
104315522 -0.004081824255568727 0.0062341329850446785
104345284 -0.004063228209578443 0.0062829785191930165
104375046 -0.004053286134487292 0.006324998906009361
104404808 -0.004036172013613037 0.006372485171194468
104434570 -0.004022735983637576 0.006424430767144282
104464332 -0.004014419759296396 0.006397230256893817
104494094 -0.0040030065116255665 0.00633987640020441
104523856 -0.003988531137060217 0.0062851446286121705
104553618 -0.003976663422392985 0.00622409191862459
104583380 -0.003968357302289028 0.006172646683681443
104613142 -0.003955327053046563 0.006116895318254735
104642904 -0.003941251041316784 0.00606286219886803
104672666 -0.003928372276505325 0.006008706981044727
104702428 -0.003917816598568215 0.0059546673219050186
104732190 -0.0039020836869132504 0.005946327417415408
104761952 -0.0038857323078258393 0.006019167419287481
104791714 -0.003862530210268131 0.006089999096090185
104821476 -0.003842424955371201 0.006164826112202515
104851238 -0.00382315631561997 0.006237310376664838
104881000 -0.003794412011052596 0.006312295605200382
104910762 -0.0037746848906994304 0.0063916394161312754
104940524 -0.00374942260435298 0.0064648721407259335
104970286 -0.003723049695411943 0.006539503736083997
105000048 -0.0036998410861634797 0.006621563743391248
