# HZ S RI R 50
90000000 -0.0007877204685828348 0.005462267006892243
90029762 -0.0007596014390495742 0.005493504516549782
90059524 -0.0009825348321955178 0.005516675946302183
90089286 -0.0009005496232479064 0.005563216280311472
90119048 -0.0011387848601111619 0.0056097974972937874
90148810 -0.0009182174103791258 0.005623991236055971
90178572 -0.0009493220491238674 0.005654287672205965
90208334 -0.0009589499485707293 0.0056918685705020355
90238096 -0.001168346045232527 0.005710046552645749
90267858 -0.0010373741053150642 0.005752308388594342
90297620 -0.0010307586759190407 0.005734297450472575
90327382 -0.0009498574183882018 0.005690292229769884
90357144 -0.0010104230103591214 0.005644597761876097
90386906 -0.0008962807287396166 0.005607367384491598
90416668 -0.0010753343125916122 0.005551108505427258
90446430 -0.0008937401703216656 0.005515864584468421
90476192 -0.0008722095734600801 0.005480660732524631
90505954 -0.0008610559463982611 0.005453908159313896
90535716 -0.0008196308926182659 0.0053909083352027065
90565478 -0.000744029677143286 0.005371558389830002
90595240 -0.0007557130842472399 0.00538226732679447
90625002 -0.0007199592418012749 0.005398504236968001
90654764 -0.0006390071122987805 0.00541446818410923
90684526 -0.0005996966362535542 0.005425556575799475
90714288 -0.0006108318825489739 0.00543826150850718
90744050 -0.0005734073780367715 0.005451175367026325
90773812 -0.00048779786061122567 0.005466220203509535
90803574 -0.0004934122863888712 0.005474244696134791
90833336 -0.0004109395834170936 0.005489895245127231
90863098 -0.00038643897513058274 0.005466051047970828
90892860 -0.00040882150859158207 0.00544285567850459
90922622 -0.000338579832412433 0.005420792734818826
90952384 -0.0003176539380385001 0.005396047830478895
90982146 -0.000336129261806827 0.005371058653732147
91011908 -0.00027198513715131014 0.005349846096019556
91041670 -0.00029115427354772783 0.00532788191850109
91071432 -0.00026809660425428637 0.00530411624579559
91101194 -0.000370800022823286 0.005279780671782504
91130956 -0.0002170380171929501 0.005291370347323099
91160718 -0.0002856526625998988 0.00532436158077325
91190480 -0.00041085569430846316 0.0053623020349339735
91220242 -0.0004680920465827087 0.005383614182292827
91250004 -0.00040761747568421016 0.0054196423445368345
91279766 -0.0005314342084154742 0.005439055454744863
91309528 -0.00039957790877812 0.005476161599557665
91339290 -0.0004725137822356189 0.005503624128232363
91369052 -0.00046598173623898316 0.005534132810809082
91398814 -0.0006529475167306573 0.005541602417847525
91428576 -0.0005249849803313632 0.0055236875894124965
91458338 -0.0005143326666812233 0.005499780411805987
91488100 -0.0005154344957725628 0.0054721503335217955
91517862 -0.0005130968037943944 0.005448791071710755
91547624 -0.00046728866247329313 0.005427529039733969
91577386 -0.00046340893834663797 0.005401958940696252
91607148 -0.0004954436550165799 0.005373632206511511
91636910 -0.0004868078213196578 0.005351766806963457
91666672 -0.00044738636826991833 0.005330537843630685
91696434 -0.0004098656710977972 0.00534359261674341
91726196 -0.00030171662819690557 0.005359615703428585
91755958 -0.00022792754740969649 0.005369428058447951
91785720 -0.0001897159926531026 0.005381947532270385
91815482 -7.748173035656887e-05 0.005391827454160102
91845244 -3.3438517086203026e-05 0.005399991976975648
91875006 3.9830729805280536e-05 0.00540419659704331
91904768 1.2044068378567052e-05 0.0054104752565585865
91934530 0.00019560488250201755 0.005406682836204464
91964292 0.00022284825330353924 0.0054231186216639245
91994054 0.0002589490852746412 0.005440869256439801
92023816 0.00012586740257607007 0.005470033971905421
92053578 0.0002280909972230713 0.005489538250372858
92083340 0.0002333728765063123 0.005510079535559272
92113102 0.0002681623740707392 0.005531925258525213
92142864 0.0002372259369256073 0.005553291034450842
92172626 0.00027186610165131573 0.005574719722805014
92202388 0.00014115328477538555 0.005599718467088619
92232150 0.00023910902646684292 0.005594225675170895
92261912 0.00011868323346107521 0.005545708363252063
92291674 0.00023159775185534965 0.005492992936917505
92321436 0.0001870123613287177 0.005443466191392377
92351198 0.00020232352775518834 0.005391239916324228
92380960 0.0001556421018026329 0.005341680725071188
92410722 0.00014404906841934592 0.0052904499908560665
92440484 0.0001603881432984449 0.005242684784652018
92470246 0.00013542590575273648 0.0051933875370181225
92500008 0.00011112773987547472 0.005145818470399599
92529770 0.00010791427686127437 0.00516442073305884
92559532 0.0001372766284691993 0.00518516215394041
92589294 6.103673241325432e-05 0.005208239999852538
92619056 0.00013251018219447502 0.0052236037616805505
92648818 0.00013374533687914288 0.005239744940974936
92678580 0.00010394932573687904 0.005262024902407435
92708342 0.00013227385018202553 0.005281127285324353
92738104 0.00012977735061820873 0.005301062019598705
92767866 0.00010089003384624253 0.005320865886514198
92797628 0.00015003853163485042 0.005333171076603843
92827390 0.00015981301135586386 0.005338202115617515
92857152 0.00019215108900186214 0.005346398121511835
92886914 0.00015046799079555088 0.005349201678098196
92916676 0.00028945463272577886 0.005360001126033519
92946438 0.0002995272385896767 0.005359483125586776
92976200 0.0003365202292739787 0.005367819504728722
93005962 0.00029773349045230844 0.005372715071297773
93035724 0.00041056079856160933 0.005381381921600172
93065486 0.00045061090127038764 0.005351010868272288
93095248 0.0005741336194453965 0.0053634819309658285
93125010 0.0006334689903955746 0.0053499351554826945
93154772 0.0007405973685250122 0.005329257551651516
93184534 0.0007274561074284124 0.005314862688761413
93214296 0.000912056165368752 0.0052806951458548215
93244058 0.000936564421227084 0.005220183270160888
93273820 0.001078311676887727 0.005226607173989011
93303582 0.0011309781654148133 0.00520968324908075
93333344 0.0011717739493508459 0.0052027660126722315
93363106 0.0012506987237659454 0.005162911608762848
93392868 0.0011208765705463491 0.005201270661072511
93422630 0.0010796423065376494 0.005205587274205939
93452392 0.0010535589584566125 0.005210449530993605
93482154 0.0009874668642149743 0.005214367676295141
93511916 0.0009650312297668947 0.0052178015781772545
93541678 0.0009202504930042073 0.005218833758332729
93571440 0.0008546237908786168 0.005218672876033271
93601202 0.0008309910031874079 0.005216457981632879
93630964 0.0008553184636624765 0.005206016688149921
93660726 0.0009045175318112498 0.005192745651956778
93690488 0.0009857966970894833 0.005177029856569983
93720250 0.0010326596410312914 0.005160035429935656
93750012 0.0010935227585197845 0.005133923781186849
93779774 0.0011491905003841285 0.005129270096521892
93809536 0.001171659616760503 0.005098573374045945
93839298 0.0012929879356886505 0.005074789186731928
93869060 0.0013551059146457154 0.005050039665881354
93898822 0.0014257802019820237 0.00502683876089242
93928584 0.0014344747892797549 0.004995857033149904
93958346 0.0014762762814745072 0.004966099839517521
93988108 0.0014327678135688325 0.004944171871208034
94017870 0.0015111490320559543 0.004909880582409608
94047632 0.0014879667451453526 0.00488057922140489
94077394 0.001573836546094051 0.00484747547341968
94107156 0.0015834542569732814 0.004814668293435599
94136918 0.0016276492120144968 0.004782467375843051
94166680 0.0016417763247693104 0.0047501441385065435
94196442 0.001701807490161569 0.004975578714114237
94226204 0.0017154220263879722 0.005236587769724504
94255966 0.0018408229748824076 0.005514245492337196
94285728 0.0018848663450961882 0.005830016546654526
94315490 0.001943640651973095 0.006188177324093483
94345252 0.0020111176355655657 0.006596170018220939
94375014 0.0020317028484156388 0.007062853199257961
94404776 0.0020678308858626876 0.007588525500183756
94434538 0.0020597982291868607 0.008205589548198703
94464300 0.002063334070644544 0.007921620057814993
94494062 0.0021218097062660653 0.007251136544414865
94523824 0.0021333348926263255 0.006666981890417049
94553586 0.002111764700909041 0.00616083897277143
94583348 0.0021197984351220144 0.005706345746296772
94613110 0.0020853148133350903 0.005311027450776544
94642872 0.0020595030631190944 0.0049613478466733335
94672634 0.002043271057383163 0.0046389377071682026
94702396 0.0020112105743212596 0.004350936226458832
94732158 0.0019877607087531762 0.004152453042726142
94761920 0.0020129108514547384 0.004076908365123327
94791682 0.0020126667602245346 0.004006243785707845
94821444 0.0020634789652766005 0.003925358672264998
94851206 0.002065239835594413 0.0038568276346450706
94880968 0.002121315063689581 0.0037743997077206177
94910730 0.0021326017544129974 0.0037011314342313335
94940492 0.002161326553901421 0.003622339055186062
94970254 0.0021559233679386185 0.0035497491930811024
95000016 0.0021979674295091456 0.003468690459384843
95029778 0.0022054547964462726 0.0034483514483153346
95059540 0.0022516167458866304 0.0034214802314977383
95089302 0.002287262546334348 0.003389055669559897
95119064 0.0023198276457808763 0.0033592536559795176
95148826 0.002325470316854317 0.0033369864603392824
95178588 0.002375065608634041 0.003297697827247124
95208350 0.0024080811760892533 0.0032597829731466224
95238112 0.0024466265553436126 0.003218572944808902
95267874 0.0024710674735210327 0.003186159756413541
95297636 0.0025063118466735358 0.0031250173934827914
95327398 0.002543355810366792 0.0030527591175804575
95357160 0.0025689786076121264 0.002985501602416166
95386922 0.0025999107078815303 0.0029100677419088604
95416684 0.0026295465599130647 0.0028380060642961037
95446446 0.0026545450465628416 0.002760770845997181
95476208 0.002686777663369744 0.0026797634487643416
95505970 0.002713493611903939 0.002593468297353565
95535732 0.002739710327974656 0.002506089015080563
95565494 0.002771866955570632 0.0024130049344547014
95595256 0.002814595785711958 0.002304152263010598
95625018 0.0028402087008417634 0.0021939591893156015
95654780 0.002873730912605687 0.002076401685618881
95684542 0.002899317551765551 0.001957987786592895
95714304 0.0029278761759890274 0.0018357256338451078
95744066 0.0029497299879038793 0.0017091248949524633
95773828 0.002966658089078538 0.001579632676557445
95803590 0.002981651415940484 0.0014469108532070112
95833352 0.0029888301933876553 0.0013147371879383483
95863114 0.0029619330275214187 0.0011699466126545348
95892876 0.0029393263780041036 0.0010280893908035846
95922638 0.0028963773285258496 0.0008962663772670633
95952400 0.0028598054465949208 0.0007569521550435534
95982162 0.002817101901556079 0.0006111562930615675
96011924 0.0027145305620977643 0.0007309330263987081
96041686 0.002731468899933899 0.00032282723952443396
96071448 0.002662473888293256 0.00017692472845784734
96101210 0.002595039565345893 3.73929936929448e-05
96130972 0.0025843775277312356 0.00016471339556162388
96160734 0.002490786866208208 -0.0002528663753654315
96190496 0.002450480191391222 -0.00037759367654407945
96220258 0.002324707109488461 -0.000601027633044301
96250020 0.00225498027833969 -0.0006830706398151787
96279782 0.002278603845729543 -0.0007430540841893782
96309544 0.002141083383658069 -0.0009696022150763539
96339306 0.00211188799747503 -0.001019844089488495
96369068 0.0020023361737654044 -0.0012080204986176085
96398830 0.0018871490853803877 -0.0013773192425450436
96428592 0.0017783772032095653 -0.0014948707788873582
96458354 0.00162508692736529 -0.0016788125924388285
96488116 0.0009950688475695766 -0.0019154498375218763
96517878 0.0013343034052962258 -0.001978476954905823
96547640 0.0011740062697879743 -0.0021017509588787953
96577402 0.0010041515375999515 -0.0022296636197171645
96607164 0.0008251132009229737 -0.0023764261141506608
96636926 5.5709686148606504e-05 -0.0023536470236997925
96666688 0.0004505070568823108 -0.0025945648747256653
96696450 0.00025067002913343133 -0.002656836453883025
96726212 7.014941679834807e-05 -0.0027229078481708475
96755974 0.0005217795710274495 -0.002936847051243006
96785736 -0.00032282729606654485 -0.002813422004922238
96815498 0.00016501494728703582 -0.0031240453392761937
96845260 -0.0007110007650306374 -0.002887701518726575
96875022 -0.0009153428601003698 -0.0028971741322663222
96904784 -0.0010943528325059982 -0.002919794231419081
96934546 -0.0013303608055112404 -0.0028770071177908543
96964308 -0.0014750160452793634 -0.002910399412212676
96994070 -0.0016704748743969538 -0.0029325332714953446
97023832 -0.002378426300349512 -0.0022283719754119654
97053594 -0.002050901041328355 -0.002936300822087421
97083356 -0.002214344141651081 -0.0029470419217906643
97113118 -0.0017765973853651387 -0.003658276585073718
97142880 -0.0025981875635351956 -0.0028939433738073383
97172642 -0.0031699383839073492 -0.0019809516036831663
97202404 -0.0029455294220811245 -0.0028448966565154487
97232166 -0.003130324273442242 -0.0027839526657622332
97261928 -0.00331404169695765 -0.0027223889957272585
97291690 -0.0035204084587055497 -0.00261948296373431
97321452 -0.0036951169191310525 -0.00252107546358803
97351214 -0.0038787050827520067 -0.0024625259101180084
97380976 -0.004046365549124342 -0.002352289168236022
97410738 -0.004204453389851268 -0.0021952624394710684
97440500 -0.004369654536628326 -0.0020796246961478403
97470262 -0.004489927637952357 -0.0008603601900627996
97500024 -0.0046580552768598895 -0.0018346588838772466
97529786 -0.004797751337730101 -0.001748903172610151
97559548 -0.004796636602044394 -0.0004609716630457064
97589310 -0.005073350873994158 -0.0014386187947772367
97619072 -0.005195769380816225 -0.0011898431537358104
97648834 -0.0053233842931612926 -0.0012301421178540488
97678596 -0.005419832153158897 -0.0009983898135026345
97708358 -0.00519492588269783 0.00019771627421999932
97738120 -0.005623943574878564 -0.0007061399768748428
97767882 -0.005726400132705853 -0.0006267480551254599
97797644 -0.006083015056853069 -0.0015946350684971737
97827406 -0.005814426710942576 -0.00024214819665322403
97857168 -0.005797640968187963 2.324046485865955e-05
97886930 -0.005789457634653434 0.0002592352734134599
97916692 -0.006237211320032635 -0.0005969983694335209
97946454 -0.005738373626049994 0.000649078203816307
97976216 -0.0062534616415868 -0.00012005449441121641
98005978 -0.005058585130441448 0.0018161060829976665
98035740 -0.00561781979049336 0.0012057620194005328
98065502 -0.005634536541724688 0.0012935724355337599
98095264 -0.005733778483647561 0.0013222006405131828
98125026 -0.005797328053962487 0.001401999332306543
98154788 -0.005223096808411797 0.002195751703379911
98184550 -0.005978940931690806 0.0014765132834744191
98214312 -0.006070900750523436 0.0014987455843695912
98244074 -0.005443304199033267 0.0023027998431054074
98273836 -0.006306836388632696 0.0015202585049985788
98303598 -0.0063517100685404025 0.0015743650136090153
98333360 -0.006449159671698462 0.001597276602224902
98363122 -0.006466835568030303 0.0016140611544440877
98392884 -0.0063908153218897494 0.001723477626266692
98422646 -0.006410712564096789 0.001742147002349571
98452408 -0.006389941175855694 0.0018042176182754266
98482170 -0.006317173243730656 0.0019029496065564807
98511932 -0.006338308260305407 0.0018996571222451148
98541694 -0.005481679961491968 0.0026796661431258786
98571456 -0.006232165812941414 0.0020546133369218505
98601218 -0.006966736773073665 0.001319889607415065
98630980 -0.00617300493415617 0.002183185041823119
98660742 -0.006131631612397312 0.0022942117516900856
98690504 -0.005294627054601618 0.003018360389244342
98720266 -0.0068393591989870115 0.001832358862280981
98750028 -0.006008350016735444 0.002638041846122127
98779790 -0.005966686002650418 0.0027415581780845855
98809552 -0.0059694349061408265 0.002800759960627649
98839314 -0.005866509378808042 0.0029429724679931575
98869076 -0.005877497621742642 0.0030101317023024706
98898838 -0.00659944172271652 0.002564642464417308
98928600 -0.005787009734676776 0.003179744645451686
98958362 -0.006613488850585281 0.0026928262315967363
98988124 -0.005862732019991169 0.0032415265404581936
99017886 -0.005825805778027282 0.0033453338183604695
99047648 -0.005883361036259017 0.003337134291008609
99077410 -0.005842433506221067 0.0034126940143412153
99107172 -0.0058341919025782785 0.0034598580648954485
99136934 -0.005906972579021488 0.0034718918582693206
99166696 -0.005912094258955153 0.0035269019665081732
99196458 -0.005831780957261875 0.003563673537163031
99226220 -0.005814779010048372 0.0035751603386519407
99255982 -0.005791473026245594 0.003565666094943158
99285744 -0.0057432735572508185 0.003611167845470784
99315506 -0.0058304144681172185 0.0035585229191929576
99345268 -0.005887973286981602 0.003562174828862681
99375030 -0.005735258474798348 0.003612454920696106
99404792 -0.0057441397188761015 0.0035925319573905322
99434554 -0.0057705283023235625 0.003573969616657598
99464316 -0.005638651980397658 0.0036904814028516203
99494078 -0.005608964303043641 0.003769411902768075
99523840 -0.005458289959486455 0.003899593413944355
99553602 -0.005367468956249446 0.003997074620790092
99583364 -0.006013145372234518 0.0037451392217094873
99613126 -0.004415863349467597 0.004484185356524971
99642888 -0.005145574365266943 0.00425907127768243
99672650 -0.004882256134466793 0.004368578044901291
99702412 -0.005585008138404933 0.00415386644632641
99732174 -0.004829476119668165 0.004482555609641257
99761936 -0.004674300982689862 0.004525099715074128
99791698 -0.0049687674116777455 0.004417193128442477
99821460 -0.004935014473822769 0.00442076794244115
99851222 -0.005042456693745031 0.004376413375720758
99880984 -0.005716069256571324 0.004107938294102474
99910746 -0.0050427746894629285 0.0043548444400281685
99940508 -0.005785264314020351 0.004053380631546545
99970270 -0.0051030306193441425 0.004311164784797712
100000032 -0.005145047937738558 0.004290602718860114
100029794 -0.005142749621708588 0.004303809450900702
100059556 -0.005122375891177917 0.0043323138936178065
100089318 -0.005092753500093529 0.004358708733435831
100119080 -0.0050685479403926766 0.004385440269973008
100148842 -0.005043831228618896 0.0044149501854017035
100178604 -0.005016177131025628 0.004444054523637962
100208366 -0.005000063104162678 0.004462425461616584
100238128 -0.0049363220678758125 0.0045014982606083
100267890 -0.004914413877702453 0.004523103698567522
100297652 -0.00489921404834661 0.004536352818954723
100327414 -0.004891373323296558 0.004554902850514235
100357176 -0.004878482284149658 0.004570044605572324
100386938 -0.004875289766652973 0.004590385018826429
100416700 -0.004867560449875029 0.004601836865662282
100446462 -0.0048634776620414604 0.004614889756819479
100476224 -0.00485716938093103 0.004635813678769471
100505986 -0.0048515393504278154 0.0046501617647686675
100535748 -0.004841308189651003 0.004662804741917719
100565510 -0.004856736448598147 0.004684013544105238
100595272 -0.004897178296560819 0.00472603334815347
100625034 -0.004945761172502854 0.004764687066899436
100654796 -0.004989754062131768 0.004813260114172847
100684558 -0.005033141392580011 0.004854479578313967
100714320 -0.005082890762412748 0.0048976459219228965
100744082 -0.00514019058111775 0.00493731400220711
100773844 -0.005186275873819182 0.004980293636188777
100803606 -0.005233511607368136 0.005021822490061471
100833368 -0.0052901704464774785 0.005063223724030256
100863130 -0.005224087091487648 0.0050653640285666405
100892892 -0.00516328379053928 0.005073606551882402
100922654 -0.005095934608977581 0.005077210931318338
100952416 -0.005031452353549821 0.005081037789247453
100982178 -0.004973198642886603 0.005081228272932112
101011940 -0.004920162521544728 0.005083444173921534
101041702 -0.004856227678264446 0.005080237205363586
101071464 -0.004799609901069816 0.0050849510752191095
101101226 -0.004740766550966819 0.005086012201885265
101130988 -0.0047126816887087366 0.005087248511239867
101160750 -0.004716857085614323 0.00508887398854232
101190512 -0.004707225471828836 0.005083909914344088
101220274 -0.004706832566060402 0.005086960561968227
101250036 -0.004702719582099594 0.00508503064855596
101279798 -0.004702790674789019 0.005079478093355367
101309560 -0.00469935702861083 0.005075355625606004
101339322 -0.004694435000731649 0.005079902541099175
101369084 -0.004691389124639024 0.00507929894845296
101398846 -0.004671725477651289 0.005099376977469432
101428608 -0.004609298317130401 0.00516982696569442
101458370 -0.00454419386626824 0.005237398668034011
101488132 -0.004484747735513297 0.005307772475910949
101517894 -0.004418124444091563 0.005377853674864633
101547656 -0.004347984600162615 0.005444129031334198
101577418 -0.004282569104904996 0.005510093828907816
101607180 -0.004212263549552645 0.00557400657794438
101636942 -0.00414538942130738 0.005634024026422253
101666704 -0.004069405345408758 0.005697294863944983
101696466 -0.004167062032294833 0.005644430820784084
101726228 -0.004245842401896195 0.0055879096590929316
101755990 -0.004333656784166773 0.005529849634210395
101785752 -0.004409245983249504 0.0054675655431656745
101815514 -0.004487841336626137 0.0054071834624930416
101845276 -0.0045673158533531995 0.005339911019217427
101875038 -0.004643317314816635 0.005268054312919355
101904800 -0.00471444393972501 0.0051950441107148524
101934562 -0.004786369745246936 0.005114095754607496
101964324 -0.00474849180624394 0.0051308329440558405
101994086 -0.004662472122015329 0.0051863582290550235
102023848 -0.0045838305607499045 0.005238099996464232
102053610 -0.004495537293851227 0.005295001041885193
102083372 -0.004400769348328384 0.005345570591040427
102113134 -0.004431977263514844 0.005415924180296361
102142896 -0.004223859281419045 0.0054375673549646964
102172658 -0.00407160909311019 0.005473023515889261
102202420 -0.00404526899645309 0.005519128716764562
102232182 -0.004010563960861998 0.005553341718491085
102261944 -0.004099354382986205 0.005578994588871886
102291706 -0.004151394368270327 0.00559863630128128
102321468 -0.00432832465090414 0.005631932904329436
102351230 -0.0043651007196907135 0.005645785143564624
102380992 -0.004452734638851731 0.0056649328191627725
102410754 -0.004550426054660132 0.005680316714843954
102440516 -0.004656593034014322 0.005688823117818329
102470278 -0.0047556997175939265 0.005706039003782595
102500040 -0.004866699550758164 0.005714614786261459
102529802 -0.004799929840031177 0.005736560673277101
102559564 -0.004742900740213991 0.005759833328067543
102589326 -0.0046837768452226035 0.0057850257733802835
102619088 -0.0046252082097973 0.005803886784369749
102648850 -0.004604018350834839 0.005818290216312994
102678612 -0.00444986013203885 0.005825394587986533
102708374 -0.004449091913803431 0.005862258183567607
102738136 -0.004393471509974497 0.005880057978156036
102767898 -0.004338230389151843 0.005895977366755262
102797660 -0.004302664625245473 0.005886251692962388
102827422 -0.004286381590896908 0.005857954948811931
102857184 -0.0042677025133100914 0.0058302981942211
102886946 -0.004252834242704897 0.005802539619035241
102916708 -0.0042367086873869786 0.005778246443240976
102946470 -0.004222147396620414 0.005750184315201119
102976232 -0.004202548674159344 0.0057222361180613605
103005994 -0.004193010355243988 0.005702972815996247
103035756 -0.004177726923278163 0.005670124275086652
103065518 -0.00416716258415042 0.005664600628620347
103095280 -0.0041675660329276495 0.00569320713879125
103125042 -0.004166296174176349 0.005726019014295739
103154804 -0.00416579608790645 0.0057439121845333525
103184566 -0.004169588413736413 0.0057784908760463586
103214328 -0.0041734261749666254 0.0058037825611597085
103244090 -0.004178646374522377 0.0058346893520627545
103273852 -0.00417621524497395 0.005867305378595906
103303614 -0.004182921024504562 0.005896127416315016
103333376 -0.004183819004413893 0.00592211596889221
103363138 -0.004085952027080247 0.005923977178012618
103392900 -0.00399703580244804 0.005923904584441428
103422662 -0.00390755704648354 0.0059230446277069694
103452424 -0.003816349129011212 0.005919021182278528
103482186 -0.0037023970218993106 0.005911984596088352
103511948 -0.0036760420473400343 0.005909780636078526
103541710 -0.003582760836995999 0.005903880056269891
103571472 -0.003504664738574838 0.005895303863835786
103601234 -0.0034177514584219477 0.005884840113150762
103630996 -0.003416689556884855 0.005877056839174983
103660758 -0.003465906050957393 0.005873029614503243
103690520 -0.0035124012477422304 0.005865931903877922
103720282 -0.0035553635677031915 0.005861321967235767
103750044 -0.003571160248536218 0.005848607284060321
103779806 -0.0036196845839552455 0.005840394603123428
103809568 -0.0036627931574446065 0.005827913199146238
103839330 -0.0037102605347726736 0.0058171404693216095
103869092 -0.003756049902652761 0.005801584096074117
103898854 -0.003799853924354817 0.005799024957518806
103928616 -0.0038371131731236904 0.005826996947618523
103958378 -0.0038772811465323216 0.0058492715469364446
103988140 -0.003916405295367594 0.0058722268773686356
104017902 -0.0039552006162135315 0.005894534812407434
104047664 -0.003998213595018836 0.0059138110502958766
104077426 -0.004042727790716822 0.005938847326589023
104107188 -0.0040820513194503175 0.00595981662822882
104136950 -0.004123801785763032 0.005980443003745036
104166712 -0.004169205136394764 0.006004744533911992
104196474 -0.004157348539608179 0.006046404873564168
104226236 -0.004147724818752835 0.006094611504105182
104255998 -0.004128595424788855 0.006141430821485382
104285760 -0.004117732098480085 0.006184298865414194
104315522 -0.004104261633281586 0.0062368993092160015
104345284 -0.004086018045348178 0.0062808341552090426
104375046 -0.004072060741782978 0.006325554531881372
104404808 -0.004058847612671536 0.006373134813680622
104434570 -0.0040423078572555116 0.006425508826033279
104464332 -0.004033324445544839 0.006400251334013039
104494094 -0.004023975953523594 0.006342369118227712
104523856 -0.004005451596155272 0.006285241582909832
104553618 -0.003998506185070001 0.006225644196884552
104583380 -0.003985669826991064 0.006172540469138903
104613142 -0.0039697710321633835 0.0061229011284356285
104642904 -0.003966662405777537 0.006063671127713594
104672666 -0.003949984392844128 0.006009217179042378
104702428 -0.00393747579708994 0.00595727987440684
104732190 -0.0039193508603993866 0.005948440792037542
104761952 -0.003902654871739857 0.006019031809574088
104791714 -0.0038829858605549327 0.006091660312316917
104821476 -0.00386112364705069 0.006167212627142682
104851238 -0.003845003772295108 0.006239360712289486
104881000 -0.0038219962984582237 0.006317410532483708
104910762 -0.0037945621851761834 0.006390682272800195
104940524 -0.003767503701581407 0.006470106695504666
104970286 -0.003744319744849064 0.006545907964826142
105000048 -0.003710006091819854 0.006621107434622774
