# HZ S RI R 50
90000000 -0.0007816769618915265 0.005460654761491806
90029762 -0.0007559443899198192 0.0054949985455064534
90059524 -0.0010484011521849283 0.005529171660531931
90089286 -0.0008580023966757865 0.005554883357375604
90119048 -0.0010648631463759906 0.005580581177131456
90148810 -0.0009132385292018372 0.0056186563680067
90178572 -0.0009431703868213257 0.005653635119409553
90208334 -0.0009171409690590896 0.005688734309272779
90238096 -0.0011648934021619133 0.0057081479692429864
90267858 -0.0010311280661345402 0.005751529542519915
90297620 -0.001022866311602105 0.0057317330447340595
90327382 -0.0009283248833620672 0.005688539858801523
90357144 -0.0009685452024780649 0.005642075837415641
90386906 -0.0008917807288891977 0.005603179690499667
90416668 -0.0010700985529575938 0.005546566174041782
90446430 -0.0009232813683067679 0.005521378956821977
90476192 -0.0008151600072010983 0.005475045216060016
90505954 -0.0007907181286218479 0.0054316516620915144
90535716 -0.0008137336941723001 0.005385641283195819
90565478 -0.000738379941707755 0.005367125556273855
90595240 -0.0007487276617250547 0.005379808563526198
90625002 -0.0007138971846918176 0.005393565009799708
90654764 -0.0006306869381731551 0.0054087174550924814
90684526 -0.0005910338411304536 0.005423436972397286
90714288 -0.0005851837941191743 0.00543230269046444
90744050 -0.0005642037864701183 0.005448546424898106
90773812 -0.0004655218894756757 0.005459085141985272
90803574 -0.0004715812364230457 0.005471114978861334
90833336 -0.000387399483516008 0.0054830351840584254
90863098 -0.00036564607226409745 0.005460160807237092
90892860 -0.00040247294025782697 0.005436716073668165
90922622 -0.0003318533051314626 0.005415698064820621
90952384 -0.00031241092973962367 0.005390449933988394
90982146 -0.00032869644133263115 0.005370468955765213
91011908 -0.0002634224233073579 0.005343777657612027
91041670 -0.0002844399241632171 0.005320995863076313
91071432 -0.00026078876755188476 0.005299661737257926
91101194 -0.00036209542521848943 0.005279088304321237
91130956 -0.00020627318906756755 0.005286917053416896
91160718 -0.00027643923705701195 0.0053190447784626765
91190480 -0.0003062799323214109 0.005349948568665508
91220242 -0.0004593166033032833 0.005380113136574784
91250004 -0.00036495889284813155 0.0054100317999685905
91279766 -0.0005201001096563818 0.005438233405405261
91309528 -0.0003890819744032892 0.005472274545216321
91339290 -0.00046357424576627036 0.0055003927946782535
91369052 -0.0004560222460093785 0.00552770185285452
91398814 -0.0006416616833256494 0.005536053238187676
91428576 -0.0005177051340035661 0.0055149519244070515
91458338 -0.00046923016190615364 0.00549389425516192
91488100 -0.0005048866140889347 0.005466656935590014
91517862 -0.0005012852571774976 0.00544296146899396
91547624 -0.00045784814397636204 0.005419651902892308
91577386 -0.00045235865293212355 0.005396646004406962
91607148 -0.00048476452481514663 0.00537282941313316
91636910 -0.0004806607163433483 0.005346414640926041
91666672 -0.0004354269238300208 0.005322988392442035
91696434 -0.0004041002811365892 0.005338329862140571
91726196 -0.0002906032522394454 0.005352746973604215
91755958 -0.0002187318160446846 0.005363871679652063
91785720 -0.00017907858540027453 0.005374467359577006
91815482 -6.596150284370794e-05 0.005382377985404202
91845244 9.368690672796047e-06 0.005390411673659281
91875006 5.054196343048983e-05 0.005396247827394294
91904768 2.347313260893825e-05 0.005401694562830881
91934530 0.0002044114155493042 0.005399689627572607
91964292 0.00023284146277569094 0.005413229003676738
91994054 0.00026984074366319795 0.0054358079895939
92023816 0.00013467423500735222 0.005461249444213319
92053578 0.00024044568518982406 0.00547823576300762
92083340 0.00024422960377661214 0.005500947811956055
92113102 0.00028113444037022514 0.005520787734144366
92142864 0.00025081256232412823 0.005545795368593205
92172626 0.0002862341042655236 0.00556584564420138
92202388 0.0001553560113422855 0.005592011561304691
92232150 0.00024865528437148764 0.005588136074321512
92261912 0.00013692066497674588 0.00553528311288613
92291674 0.00024758898461366385 0.005481996623599544
92321436 0.00019983028320424815 0.005431946806280651
92351198 0.0002148173592375995 0.005380433019294086
92380960 0.00016991427540031094 0.005332028345710955
92410722 0.00015827445177055813 0.0052810396987267244
92440484 0.0001742290544660675 0.005231063553017228
92470246 0.00016160072129605392 0.005186438130944043
92500008 0.00012437923122500763 0.005135721966763975
92529770 0.00012291995504275065 0.005154132904980079
92559532 0.00014967604471815662 0.0051732482571976756
92589294 0.00012275328499249073 0.0051918823088151584
92619056 0.00015007643888986346 0.005210476441626723
92648818 0.00014989366344284166 0.005231740810114578
92678580 0.00012145355173138728 0.005252360919477423
92708342 0.00014751766360764738 0.005270667026706645
92738104 0.00014668057798550573 0.0052876152391082365
92767866 0.00011976110194201094 0.005307168340511802
92797628 0.00016839507034543903 0.0053209798195885455
92827390 0.00017670071346419667 0.005326601608450417
92857152 0.00020955378126825863 0.005333778300258999
92886914 0.00016668420343683745 0.005336001394754187
92916676 0.0003092961644877256 0.005345897573630527
92946438 0.00031831541336633335 0.005350550048709743
92976200 0.00035627947515171006 0.005354516145879708
93005962 0.0003182945104702641 0.005359613492342944
93035724 0.000432288627199429 0.0053650105313566504
93065486 0.0003600849740133652 0.005371097176974431
93095248 0.0005927312404530996 0.005347025054455754
93125010 0.0006208225535980201 0.005340818839955415
93154772 0.0007599114094106361 0.0053096029232078895
93184534 0.0007471447766652173 0.005296160815718932
93214296 0.0009200673737531081 0.005266598865648515
93244058 0.0009173757683531643 0.005249176805035961
93273820 0.0010666283321078647 0.005219372885236076
93303582 0.0011672206408870262 0.005183367395237172
93333344 0.0012849855598820155 0.005143530858223455
93363106 0.0012705727922655596 0.0051407500795041475
93392868 0.0011429907174895014 0.00517655134560294
93422630 0.0011004607832238457 0.005183855688063442
93452392 0.0010757497350971337 0.005188011112886007
93482154 0.0010142231949764903 0.005191353371804951
93511916 0.0010327308190824888 0.0051727875431495035
93541678 0.000946292133611151 0.0051948883185194
93571440 0.0008802290674738409 0.005195208236562099
93601202 0.0008545668918084978 0.005193237560418574
93630964 0.0008857444455311706 0.0051836117891800254
93660726 0.0009151189146033575 0.005168392345172029
93690488 0.0009662907261624948 0.005160331735020146
93720250 0.0010564814245393806 0.005132073093515806
93750012 0.001124140136487735 0.005112311900695266
93779774 0.001205544054642614 0.0050883259682578475
93809536 0.001199827692373304 0.005068246113460029
93839298 0.0013171059853301277 0.005047273794577065
93869060 0.0013834619393872701 0.005016666089261832
93898822 0.0014531318815057712 0.004988888328728946
93928584 0.001460039096069799 0.004961867898282606
93958346 0.001501509918677488 0.00493032278225541
93988108 0.0014602452414640222 0.0049069375058314385
94017870 0.0015349726655413782 0.0048667082842993445
94047632 0.00151315970686817 0.004841739624743467
94077394 0.0016030057651115729 0.004804898191685239
94107156 0.0016120207646085395 0.004772904677369027
94136918 0.0016536965785440099 0.004740512595699987
94166680 0.001663814331291516 0.004708580101162437
94196442 0.001730087820891738 0.004931444775981972
94226204 0.0017491330699483556 0.00518409751809035
94255966 0.0018731536192595267 0.005459724711028428
94285728 0.0019248223356927252 0.005772523951421626
94315490 0.0019845941117982682 0.006124807407387459
94345252 0.0020573780690907525 0.006525662265220344
94375014 0.002077626116730086 0.006980664843504315
94404776 0.0021209517116924604 0.007509912079029999
94434538 0.0021241288932460833 0.008115492658605804
94464300 0.00212556585752311 0.007831529144394665
94494062 0.0021776768395597723 0.007163603408013401
94523824 0.0021859445865414317 0.006582233252364565
94553586 0.0021559874419989754 0.006076005028791637
94583348 0.0021591982223277987 0.005629000141682004
94613110 0.0021171539227166974 0.005234004699626894
94642872 0.002090341007931608 0.0048836414618574795
94672634 0.0020731227848548345 0.004561340023947
94702396 0.002039058176659021 0.004277709439030584
94732158 0.0020186031746269066 0.004077067094518631
94761920 0.002040648627945534 0.003999152604387903
94791682 0.0020382070690644475 0.003928832661328899
94821444 0.002085238180050083 0.0038508630666611453
94851206 0.0020837913146290873 0.0037752345632371623
94880968 0.0021379614942736145 0.0036935870797609664
94910730 0.0021538386639768058 0.0036196614902349344
94940492 0.0021792414368757844 0.0035360804887152207
94970254 0.002172830519509829 0.003465359203304507
95000016 0.002210910397781641 0.0033820619989341355
95029778 0.002220813569169438 0.003359893816476434
95059540 0.002268019777975355 0.0033231198803516356
95089302 0.0023018779713313646 0.0032953447148018327
95119064 0.0023345656542404394 0.0032616527889048454
95148826 0.002339647319530634 0.0032333734642123234
95178588 0.0023862908762022654 0.0031898391743292193
95208350 0.0024176090073837536 0.0031526736365732216
95238112 0.0024506986774026525 0.00311056985277208
95267874 0.002475165509061137 0.003066308521740526
95297636 0.0025100420481849123 0.003005065315273679
95327398 0.002541983548286099 0.0029336374523834404
95357160 0.002565204501702305 0.0028596996265378926
95386922 0.00260051432336039 0.00277918872976278
95416684 0.002622846604992504 0.0026985406363257136
95446446 0.002647999175041074 0.002618503287464672
95476208 0.0026737387503120596 0.0025380101352574158
95505970 0.0026914264214457917 0.00245217739121149
95535732 0.002715864269168038 0.0023576022376097165
95565494 0.0027467722058245217 0.0022554357254272127
95595256 0.0027752616352693426 0.0021451674766376724
95625018 0.002800682309663121 0.0020353867895988747
95654780 0.0028244019549903358 0.001914418044791694
95684542 0.002846737525904323 0.0017963505874384008
95714304 0.0028648482386757685 0.0016697694390359434
95744066 0.002878282014879133 0.0015443702954561311
95773828 0.002888030223159224 0.001414456845296203
95803590 0.002899100224872912 0.001279172651237789
95833352 0.0028975289833186404 0.0011418866858513431
95863114 0.0028649424727116546 0.0009988622540380416
95892876 0.002828998557749149 0.0008592870295407119
95922638 0.0027831925764584126 0.0007196830796836945
95952400 0.0027355140183679795 0.0005859517797779241
95982162 0.0026776586210027057 0.0004354196198857028
96011924 0.002623489132892726 0.0005229158769729803
96041686 0.0025844089249345797 0.000126817021841018
96071448 0.002517286408985862 -4.440733868647123e-06
96101210 0.0024474634518691822 -0.00015275341342587697
96130972 0.0024607982103370275 -3.723904101505524e-05
96160734 0.0023240474322551267 -0.00041876151480151844
96190496 0.002262016746303135 -0.000568272448261845
96220258 0.002169645919602493 -0.000728240941110976
96250020 0.002119082034027285 -0.0008343849703418231
96279782 0.0020203827872288236 -0.000987994574886757
96309544 0.0019024210564501057 -0.00114213942743654
96339306 0.0018268332497737034 -0.0012523778642643264
96369068 0.0017350007078050773 -0.0013738126999299045
96398830 0.001590394231892479 -0.0015299711036850965
96428592 0.0014460888799343846 -0.0016851112027156565
96458354 0.0013232145216082152 -0.001819858794845868
96488116 0.0006786350858608056 -0.0019602280618199832
96517878 0.0010137330716394554 -0.0020694938091757194
96547640 0.0008020513759670522 -0.002200834424289543
96577402 0.0006659904172026191 -0.002319081803756928
96607164 0.00043897961906348205 -0.0024227871963366267
96636926 -0.0003134904613861545 -0.002329420555097314
96666688 3.670664126491696e-05 -0.002620778959736357
96696450 -0.00011328119067401495 -0.0026796384324692863
96726212 -0.00034279178737833875 -0.002725747029271807
96755974 0.00014940208143366632 -0.0030295552885150154
96785736 -0.000780160615798153 -0.0027140986060736187
96815498 -0.0002593219444459237 -0.0031572269411156077
96845260 -0.0010972205890948932 -0.002802226860561739
96875022 -0.0012909970067071432 -0.0028094618137630887
96904784 -0.0014635522668429873 -0.002809706757228431
96934546 -0.0016888424413641866 -0.002738690837230456
96964308 -0.0018535335601350452 -0.002762161283110445
96994070 -0.002027741139047084 -0.002766228064952201
97023832 -0.0026468350448730065 -0.001989973183698709
97053594 -0.0023878676631382072 -0.002733217703507447
97083356 -0.0025474290568332377 -0.0027322182414287084
97113118 -0.0022042657897760943 -0.0034865421521189485
97142880 -0.002919056363396877 -0.002655378183360958
97172642 -0.0033742476842127094 -0.0016854821698730404
97202404 -0.0032341368257199376 -0.0025792672134669304
97232166 -0.0034121111736810945 -0.0024903068466922656
97261928 -0.003591935331776851 -0.002423062045506777
97291690 -0.003751755295295243 -0.0023252228202489075
97321452 -0.003928730283638717 -0.0021973233396916053
97351214 -0.00407414449900637 -0.0021265004478772764
97380976 -0.00423456979190635 -0.002003532977328491
97410738 -0.004384545210982378 -0.0018607423927491722
97440500 -0.004522753704278411 -0.0017337531031887765
97470262 -0.004556331982994255 -0.0005374209480437305
97500024 -0.004791085202135775 -0.0014703637749470446
97529786 -0.004907632377020223 -0.001405092003417778
97559548 -0.004812647629500426 -0.000143128955374218
97589310 -0.005144123928267995 -0.0010823827395354793
97619072 -0.005236999859522864 -0.0008565960920963162
97648834 -0.005377942702578732 -0.0008658889579320237
97678596 -0.005454873248282092 -0.0006922068839311285
97708358 -0.005163810924094884 0.0004710677121474386
97738120 -0.005640484693153623 -0.0004146710814002267
97767882 -0.0057270640255092835 -0.0002794472725113581
97797644 -0.006127896306335411 -0.0012651405928820456
97827406 -0.005775175881276102 9.455362866559578e-05
97857168 -0.0057346778428262425 0.00033146958637889887
97886930 -0.005718789345894034 0.000538835462780589
97916692 -0.006199693065468252 -0.00026556329322789365
97946454 -0.005654275903527111 0.0009217486276097892
97976216 -0.006166132714321295 0.0001809839064212641
98005978 -0.004944566001537931 0.0020179749099297813
98035740 -0.0054996129257641 0.0014299216792758363
98065502 -0.005497903212650169 0.0015308020211408718
98095264 -0.005605888691233388 0.0015483962233347394
98125026 -0.005631242336212758 0.0016475488826889063
98154788 -0.005078307183855228 0.0023589596883399075
98184550 -0.005814002028926504 0.0017062301627142865
98214312 -0.005928382082846566 0.0017293541015665115
98244074 -0.005296764007995051 0.002462421732908122
98273836 -0.006138284798365638 0.0017256995236129618
98303598 -0.006195914341071317 0.0017867708544435884
98333360 -0.006278211189771388 0.0018025683235886574
98363122 -0.006295120653888735 0.00182383485578744
98392884 -0.006234933071801991 0.0019263047378647465
98422646 -0.006250946256409565 0.0019270599488016764
98452408 -0.006218574201794907 0.0019791878981724018
98482170 -0.006145943913553673 0.0020666316922144374
98511932 -0.006163001467283428 0.002069577586511007
98541694 -0.005329499076043736 0.0028029995524949127
98571456 -0.006051058788074463 0.0021929794616896525
98601218 -0.006765613080562149 0.0015093287021411533
98630980 -0.005987674054191745 0.0023279382586785698
98660742 -0.005949161780596829 0.0024383918984946075
98690504 -0.00513138398886512 0.0031092886139128303
98720266 -0.0066515227692728095 0.0020003356303988818
98750028 -0.005820157936298279 0.002754161201968109
98779790 -0.005775044381965854 0.0028414911182585785
98809552 -0.0057701612270484835 0.0029022809109670736
98839314 -0.005673761335164742 0.0030362266801572525
98869076 -0.005673895565483436 0.003095867788709714
98898838 -0.006379593134464885 0.0026726458231489036
98928600 -0.005593641544378932 0.0032482649035583933
98958362 -0.006381001945277164 0.002781214273636958
98988124 -0.005658590265641732 0.003308362465727994
99017886 -0.005608051898286136 0.003382279706929936
99047648 -0.005672517603349811 0.0033813596260809046
99077410 -0.005539202365611491 0.003472854571981853
99107172 -0.005625135860328769 0.0034921328986564698
99136934 -0.005691437232778071 0.0035039292076593648
99166696 -0.005700002809754136 0.0035425634118263004
99196458 -0.005622771762048062 0.003582194823431214
99226220 -0.00560537789858485 0.003590501496665746
99255982 -0.005675249517957111 0.0035515561817121163
99285744 -0.005508719160569317 0.0036050663563493433
99315506 -0.005556769171296739 0.0035802183849683415
99345268 -0.005613107405903372 0.0035623725314592064
99375030 -0.005539614878484737 0.0035903606265090563
99404792 -0.0055123375781400835 0.0035843260826787017
99434554 -0.005572116884960858 0.0035657519323820668
99464316 -0.005445613809085193 0.003661884053422825
99494078 -0.005419267934591053 0.003735151158720578
99523840 -0.005270387487889038 0.0038618584047531
99553602 -0.005178837325579847 0.003955108178456584
99583364 -0.0057951568891219 0.003706685915765327
99613126 -0.004269691986711639 0.0044162846759687666
99642888 -0.004908101040710247 0.004203135874417864
99672650 -0.0048156002655009664 0.004281698659711521
99702412 -0.005401121516296974 0.004079993569262857
99732174 -0.004681824652445918 0.004401107439776747
99761936 -0.004537985046691529 0.004447837841988478
99791698 -0.004822654070671996 0.004328631039197948
99821460 -0.004880704032118743 0.0043351134284488856
99851222 -0.004888835196539991 0.004283496679345921
99880984 -0.005541487439806357 0.004008602282842479
99910746 -0.004898184116886682 0.004251321634817766
99940508 -0.005615076803415331 0.00394350480982211
99970270 -0.004959289777097263 0.004199790940225963
100000032 -0.0049963857663405855 0.004176994986431563
100029794 -0.004969864958675138 0.0042046802769840986
100059556 -0.00494625018173408 0.004226652467938508
100089318 -0.004935085844070504 0.004242050123168052
100119080 -0.004912816821317328 0.004267246437427236
100148842 -0.004891866364439045 0.00429479731712873
100178604 -0.004873985807692045 0.004319206327746922
100208366 -0.004852900221879233 0.004343570487702934
100238128 -0.004832298107967495 0.004361261393385524
100267890 -0.0048073192570584535 0.004387702146264718
100297652 -0.004800176639802777 0.004401038036542902
100327414 -0.0047977246561564674 0.004421447629067517
100357176 -0.0047908918593308 0.004435114638483828
100386938 -0.004797318390739586 0.004444796724179969
100416700 -0.004791816158596124 0.004449622674117476
100446462 -0.004783988219409312 0.004470447868190913
100476224 -0.004788845349050373 0.0044816194859505
100505986 -0.004781029392640691 0.004494784328361364
100535748 -0.004782389675994413 0.00450764939711521
100565510 -0.004796938536462949 0.00453003070310112
100595272 -0.004839961341924827 0.0045684919815740695
100625034 -0.004892469062541675 0.004613107429933107
100654796 -0.00493737975045373 0.0046539683422863985
100684558 -0.0049868853860050265 0.004692735220966171
100714320 -0.00503357564625098 0.004730817069471799
100744082 -0.005087131054079136 0.004768022294379992
100773844 -0.005143643007673914 0.004819783789629331
100803606 -0.005203423570064756 0.004864259489964222
100833368 -0.0052627459450262735 0.004898569218176616
100863130 -0.0052003224513101345 0.004903450685396885
100892892 -0.005144436263057289 0.004911086593660651
100922654 -0.005082841498487754 0.0049171482507540136
100952416 -0.005031154588076324 0.0049196404994232956
100982178 -0.004975407022901792 0.004925142870549348
101011940 -0.004914695177589585 0.004931184566935542
101041702 -0.00486298252875648 0.0049295002203985526
101071464 -0.004811554336447397 0.004926752643558798
101101226 -0.004754178510221177 0.004933519339300285
101130988 -0.004737456921700196 0.004937504850171452
101160750 -0.004743848870335976 0.004935305969300741
101190512 -0.00473894297843046 0.004936317839738948
101220274 -0.004739610506835169 0.004936927463599167
101250036 -0.0047364254890519515 0.004939875964409669
101279798 -0.004739177250870848 0.004939271289471483
101309560 -0.004739299266495336 0.004945444042489736
101339322 -0.0047378526821794985 0.004944194972975738
101369084 -0.004735171314976376 0.0049442207824325
101398846 -0.004719001976627267 0.00496971304283978
101428608 -0.00466742668686652 0.005045972581478587
101458370 -0.00461368448859291 0.005117793118034648
101488132 -0.004547727177604746 0.005185247239301476
101517894 -0.0044898524246562805 0.005259066803364048
101547656 -0.004426983583002727 0.005326187567111082
101577418 -0.004357994271648241 0.005394755373951929
101607180 -0.004300456031046456 0.005459535953235327
101636942 -0.004223130603949493 0.0055343570583573105
101666704 -0.0041612534219650395 0.005595567596005275
101696466 -0.004247595698316748 0.005544117514832781
101726228 -0.004338807069746627 0.005491687666599563
101755990 -0.0044172769206801 0.005433444155552001
101785752 -0.00449819102788122 0.005372621131056963
101815514 -0.004574996556968501 0.005305866431433833
101845276 -0.004658684733693377 0.005246496142543837
101875038 -0.004736840845771486 0.005174249849507431
101904800 -0.004805926506582962 0.005101907013319131
101934562 -0.004874518520526271 0.005024992422354977
101964324 -0.0048381830585615005 0.005044133316872598
101994086 -0.004760613988703659 0.005101816221439667
102023848 -0.004667830781383913 0.005165103957315505
102053610 -0.00458520109468493 0.00521888195147342
102083372 -0.004480653529685832 0.005316019872965968
102113134 -0.004407132558854106 0.005324945439637407
102142896 -0.0043213774274188654 0.0053737247498839
102172658 -0.0042290915574604866 0.0054185112328554936
102202420 -0.004136552757761909 0.005467740687374001
102232182 -0.004105900645221398 0.005502743298834725
102261944 -0.004194637368738315 0.005530426180420364
102291706 -0.004278296294005466 0.005557056508940817
102321468 -0.004368736780632398 0.00557417851767465
102351230 -0.00442805334495369 0.005600844605866637
102380992 -0.004586644260351394 0.005619210784566711
102410754 -0.004659114266117201 0.005632925238293937
102440516 -0.004819155832271055 0.005660446340658169
102470278 -0.0048562681295745164 0.005667639018051761
102500040 -0.004961069506753436 0.005673357014921247
102529802 -0.004901926453218923 0.005701412305191171
102559564 -0.0048440287715797135 0.005724730627920498
102589326 -0.004754547191726299 0.005752715709944227
102619088 -0.004722842807788955 0.005771826426043214
102648850 -0.0046703087413559295 0.00579605029858627
102678612 -0.004607083571790962 0.005817023579198632
102708374 -0.004555725308148953 0.005840947308720155
102738136 -0.004494741162229565 0.005861776849218077
102767898 -0.004436610362754885 0.005879913535021735
102797660 -0.004399013769412419 0.005872834485650156
102827422 -0.004382562242614451 0.005844820705328683
102857184 -0.004365194740882185 0.005818004982147097
102886946 -0.004348795076522319 0.0057938481861008525
102916708 -0.004332926279948075 0.005772089419543684
102946470 -0.004311987053568359 0.005744420352220599
102976232 -0.00429786908337899 0.005720206816995524
103005994 -0.004275784662918826 0.005697500690732304
103035756 -0.004263801740179297 0.005669393703878716
103065518 -0.004251585381744236 0.005667111063892478
103095280 -0.004252665227097368 0.005696663361479422
103125042 -0.004253291365680311 0.005721541498373771
103154804 -0.00425317795256642 0.005750335053472298
103184566 -0.004250325074919093 0.005784010225511901
103214328 -0.0042574495552901905 0.005816502160386062
103244090 -0.004255692266326225 0.005845077774639135
103273852 -0.00426164665577455 0.005874035546490854
103303614 -0.0042603087524850656 0.005908016491906453
103333376 -0.004261272810183151 0.005936646186247784
103363138 -0.0041644174021269065 0.00593718168926007
103392900 -0.0040727369915511576 0.005940125034110434
103422662 -0.00398038864892347 0.005940311643825726
103452424 -0.0038928368500041324 0.005939116923323825
103482186 -0.0037977321603784074 0.005933856814692991
103511948 -0.003709021071812338 0.005933466721384067
103541710 -0.0036211444014618405 0.005924082989520204
103571472 -0.0035376137911106464 0.005916728558130243
103601234 -0.0034556879908966805 0.005913221631297151
103630996 -0.0034546638574687537 0.005901213350609308
103660758 -0.003500604679883864 0.005897494978970907
103690520 -0.003541647537314343 0.00588752741745457
103720282 -0.0035904696171191646 0.005883266893607129
103750044 -0.0036313866895181994 0.005879904287062849
103779806 -0.0036756119544191996 0.0058662373242134025
103809568 -0.0037244957744400047 0.0058577433004715716
103839330 -0.0037697322780751775 0.005846806387587274
103869092 -0.003808285163873861 0.005830806673099561
103898854 -0.003855903561418624 0.005828914374762109
103928616 -0.0038933024533541827 0.005856010689774693
103958378 -0.003931131952738173 0.005882127505238447
103988140 -0.003971913663547212 0.005903021698315718
104017902 -0.004007129405847008 0.005929819918895222
104047664 -0.004044979528084365 0.005947846366591858
104077426 -0.004092413034573175 0.005968773585704876
104107188 -0.0041304633350663185 0.0059910541193249
104136950 -0.004174245123426491 0.006012840290004691
104166712 -0.004220635085456415 0.006037065269273394
104196474 -0.004206193001120668 0.0060828278835044595
104226236 -0.004194784106159323 0.006126709550144752
104255998 -0.004179926598705292 0.006174875135454151
104285760 -0.004163252574104205 0.006221215886446738
104315522 -0.004143475792198665 0.0062641850593783965
104345284 -0.004130297995176626 0.006312354839335275
104375046 -0.004116653224127154 0.006361468909340226
104404808 -0.004099626240762363 0.006412144516523149
104434570 -0.004082805159678867 0.006459176875993138
104464332 -0.004067510223378806 0.0064395270450492426
104494094 -0.004061950106119691 0.006377982013979233
104523856 -0.00404904922106596 0.006322280039416566
104553618 -0.004036435591502573 0.006260192270605856
104583380 -0.004022420116044729 0.006209501194589882
104613142 -0.0040089880764823446 0.006151518033008643
104642904 -0.003994943129204809 0.006095720118164001
104672666 -0.003984684620418394 0.006042864680627654
104702428 -0.003970146728624362 0.00598806174225446
104732190 -0.0039573205143383396 0.0059792778913544085
104761952 -0.003930490132590729 0.006051793770981123
104791714 -0.003914548051216378 0.006124883786003886
104821476 -0.00389336642236038 0.006194766438177877
104851238 -0.0038717409236356183 0.0062718800229982045
104881000 -0.003845502426017475 0.006347361099581214
104910762 -0.003823151164240893 0.006420587673531616
104940524 -0.0037907211914041763 0.006502316220653474
104970286 -0.0037665918183289143 0.006578394269930486
105000048 -0.0037499930618774863 0.006659408770186551
