# HZ S RI R 50
90000000 -0.0007565076674017536 0.005462091393534739
90029762 -0.0007482000227487705 0.005488062531038719
90059524 -0.0009862482832672203 0.0055124032043953755
90089286 -0.0008526104721565962 0.005550883028793273
90119048 -0.0010413674602543644 0.00557500015609637
90148810 -0.0009060808326175373 0.005615560625465134
90178572 -0.000918035004855431 0.005644387653019947
90208334 -0.0009275672234350329 0.005685253733380835
90238096 -0.0011561094857749361 0.005703507508090246
90267858 -0.0010239223633850267 0.005748354047251053
90297620 -0.0010152565002436932 0.0057271682634413975
90327382 -0.0009174748006654683 0.00568553969830643
90357144 -0.000962019267705024 0.0056401354959584845
90386906 -0.0008832377545392419 0.005596545600597858
90416668 -0.0010614277428295648 0.00554394278576367
90446430 -0.0008810297618097022 0.005510749783384339
90476192 -0.0007743355611576564 0.005459929720679769
90505954 -0.0007821940508430782 0.005427615035962913
90535716 -0.0008068771041463635 0.005382644629366414
90565478 -0.0007295071513387901 0.005363719759726288
90595240 -0.0007403137391867052 0.005376901853389036
90625002 -0.0007051077061612072 0.0053891927612338755
90654764 -0.0006210993228365515 0.005406041337645855
90684526 -0.0005855606278778058 0.005416981744713713
90714288 -0.0005947484207315812 0.005428200076506212
90744050 -0.000555336659230707 0.005444789245224271
90773812 -0.00046980472032926834 0.005458147969359981
90803574 -0.00047840936365546 0.005467376301098625
90833336 -0.00039552698167055685 0.0054789988686228565
90863098 -0.00036948794847696623 0.005455950675224045
90892860 -0.0003924676159458874 0.0054338949834772
90922622 -0.0003232821118401287 0.005409827185738515
90952384 -0.00030101065199528414 0.0053846409827446404
90982146 -0.000320582049412852 0.005363814082204185
91011908 -0.00025473552273822734 0.005339362719068438
91041670 -0.00027356250595084424 0.005314067150887962
91071432 -0.0002525720582082028 0.005292272082141709
91101194 -0.0003532490445853468 0.005269883003783418
91130956 -0.00019710575562994882 0.0052797611635858775
91160718 -0.0002675788069669411 0.005311151224909698
91190480 -0.00029606302035091177 0.005342516591013968
91220242 -0.00044858852097726175 0.005373393719409135
91250004 -0.00035597675250558967 0.005402474366772911
91279766 -0.0005103865788943649 0.005431267757806122
91309528 -0.0003767538518423631 0.0054662486903337545
91339290 -0.00045208072364949655 0.005492591930029306
91369052 -0.00044576225101350045 0.005523520030259051
91398814 -0.0006293836130446104 0.005529312150563765
91428576 -0.0005016423223839142 0.0055076079664104745
91458338 -0.0004563651586888576 0.005488623783099549
91488100 -0.000492479197576061 0.005460118772234403
91517862 -0.0004868225389280397 0.005433928055796166
91547624 -0.0004438108371040376 0.0054109386468887
91577386 -0.00043991481643974905 0.005389666586476556
91607148 -0.0004729119740303539 0.0053632396361680155
91636910 -0.00046474892877719113 0.005338940417269655
91666672 -0.0004245441657973724 0.005314887149764799
91696434 -0.00038786035545379787 0.0053311118726798975
91726196 -0.0002803312559264015 0.005343832352111668
91755958 -0.00020420255128899916 0.0053559948255536985
91785720 -0.00016522631278978366 0.005365774481238074
91815482 -5.320492220701085e-05 0.005373569944031808
91845244 2.3614250339322234e-05 0.005380820028185635
91875006 6.318271347425929e-05 0.005386392302463567
91904768 3.790505225454806e-05 0.005391550872195642
91934530 0.00022148044793344161 0.005390762011094467
91964292 0.0002466855384923306 0.005403810154222045
91994054 0.00028464490990794486 0.005423709946266512
92023816 0.00015026807230079475 0.0054485013523105745
92053578 0.00025693544689575187 0.0054673754602681405
92083340 0.0002605533617314473 0.005489114896572401
92113102 0.0002963857714725925 0.005508763703635032
92142864 0.0002476081171824404 0.0055363124375511115
92172626 0.000302448673962969 0.005556192892225698
92202388 0.0001728153040897648 0.005577020654985325
92232150 0.00026675730300223925 0.005574244578025352
92261912 0.00015065120059471718 0.005521801039655203
92291674 0.0002647703321275514 0.005469277818287518
92321436 0.00021670453262628573 0.00541920236061803
92351198 0.00023426082958375572 0.00536676526884449
92380960 0.00018885099169304055 0.005316772737676119
92410722 0.00017610668724950962 0.005267970503789828
92440484 0.00019225571258168445 0.005218555686901334
92470246 0.00018336683736924598 0.005169524669531634
92500008 0.0001433832368892962 0.005120789645797914
92529770 0.0001442817965723293 0.005139898986959997
92559532 0.00017047413059631013 0.005157013801858159
92589294 0.0001410228001667684 0.0051775811420409325
92619056 0.00017141566066341185 0.005195621341555794
92648818 0.0001700133044457657 0.005215965274818953
92678580 0.00014372321803887591 0.00523338975751273
92708342 0.0001711485652234615 0.005253453406253615
92738104 0.00016725913694849628 0.005274901999836803
92767866 0.00014256197188131052 0.005289327566250188
92797628 0.00019205669695705472 0.00530059744238126
92827390 0.00020167549350268754 0.005309018321917752
92857152 0.00023464582029678507 0.005313118251590016
92886914 0.00019403868402567668 0.005315497754054466
92916676 0.0003347761493826021 0.005325736750351687
92946438 0.0003414979444423461 0.0053301018293529685
92976200 0.0003796198785543003 0.005332268356273581
93005962 0.00030885116075102037 0.005344343417700208
93035724 0.00045866778437855343 0.005339224873074583
93065486 0.0004050280538468724 0.005348997641820268
93095248 0.0006214983605825836 0.005323261310861706
93125010 0.0006971587037376939 0.005304073593633577
93154772 0.000786246680769182 0.00528779362929702
93184534 0.0007739699784469992 0.005271679919067804
93214296 0.0009601575936404949 0.005231199112107711
93244058 0.0009421175846673304 0.005221183860067694
93273820 0.0010956667323376071 0.005188292303032178
93303582 0.0011952172283182872 0.005156989685027487
93333344 0.0012800885877271794 0.005125226415717161
93363106 0.001238151400552208 0.005135056950468169
93392868 0.001174084818188559 0.005146872834238118
93422630 0.0011282477886398875 0.005153795022937244
93452392 0.0011058484708494566 0.005155935790272038
93482154 0.0010443806604222628 0.005153914195017481
93511916 0.0010197616503185756 0.00516230646159584
93541678 0.000978524421405382 0.005161889537492919
93571440 0.0009158102232007299 0.005161336171325997
93601202 0.0008917945089620764 0.005157326146574717
93630964 0.0009209012220025301 0.00514512083660573
93660726 0.0009625086569392413 0.005130423808363297
93690488 0.0010465216921512898 0.005112007762463935
93720250 0.0010944005208834901 0.005091826508811786
93750012 0.0011570119836790014 0.005072952512115887
93779774 0.0012436024443898853 0.00504872364535752
93809536 0.0012338262599832718 0.005026433357001088
93839298 0.001355174308942796 0.005000424310532362
93869060 0.001420683955396223 0.004972491741698083
93898822 0.0014900230522401016 0.004942680245002288
93928584 0.001496511797096289 0.004913069506898115
93958346 0.0015382952247386939 0.004883111816171165
93988108 0.0015004490488621173 0.004853972487766489
94017870 0.0015739652238981046 0.0048202961335874145
94047632 0.0015501108938624072 0.004790772040053953
94077394 0.0016461644666146003 0.004753933257665969
94107156 0.0016543406980208907 0.0047173041618284
94136918 0.0016986024555851425 0.004684444869550356
94166680 0.001707402123661808 0.004651287755545666
94196442 0.0017726824537565094 0.004871007364788489
94226204 0.001793261948624472 0.005120949708189806
94255966 0.0019282430368137763 0.005388425631713215
94285728 0.0019796008887158546 0.0057012442369662256
94315490 0.0020457069004171722 0.006045760945251563
94345252 0.0021228531063462786 0.006441219345992675
94375014 0.002157175554989584 0.006889040319949783
94404776 0.002207666773005114 0.007405004531101961
94434538 0.0022146565617864374 0.008008974424669144
94464300 0.002222823922014931 0.007726160211560088
94494062 0.0022539988558095583 0.007058908651873227
94523824 0.002257000795245516 0.006482529929328962
94553586 0.0022315697859758865 0.005974075377965017
94583348 0.0022211604515247137 0.005534490447712051
94613110 0.0021799372081528776 0.005141023924142972
94642872 0.002147899361167433 0.00479487584490694
94672634 0.0021291729188532412 0.004473651375173804
94702396 0.0020949587692686593 0.004185022833605251
94732158 0.002066774321443488 0.003984358928565855
94761920 0.0020893888005540863 0.003908869058282002
94791682 0.0020881032473687774 0.0038394449980652546
94821444 0.002137684388156525 0.0037503254782589386
94851206 0.002136331849189309 0.0036758867943555993
94880968 0.0021886772557987333 0.0035901428731253218
94910730 0.002201941860612717 0.0035102871420006915
94940492 0.0022318045880913373 0.0034274489336807274
94970254 0.002220300467339003 0.003355704947680219
95000016 0.0022627773905388657 0.0032620549656074676
95029778 0.002268580640781281 0.0032420364810002407
95059540 0.0023150544686453244 0.003207651154977483
95089302 0.002346739901597562 0.0031688088612460354
95119064 0.0023806636813805283 0.0031277166119852047
95148826 0.0023862183303901426 0.0031000973293041937
95178588 0.0024398523074560183 0.0030484889797325297
95208350 0.0024601292741907206 0.0030048501287646603
95238112 0.002496177888075507 0.0029549259258707834
95267874 0.0025191224079649274 0.0029133050563318235
95297636 0.00255465101438928 0.0028472399383246733
95327398 0.0025822453868437957 0.002770145661253095
95357160 0.0026022942141056644 0.002693222539292865
95386922 0.0026330084120944506 0.002607062232755267
95416684 0.0026597896555184417 0.0025206562232731136
95446446 0.0026783266428348383 0.0024392580947717886
95476208 0.0027003620328743855 0.002344038819699411
95505970 0.0027142585859692985 0.0022532228221508344
95535732 0.0027389197277406198 0.002151832113366079
95565494 0.002769157151542767 0.0020505040529311055
95595256 0.00279595137392806 0.0019300131052753273
95625018 0.002819906527412937 0.0018110124751536767
95654780 0.002834550402504522 0.0016893652216458074
95684542 0.002848724908907439 0.001555107572583696
95714304 0.0028627529220410174 0.0014226149259707777
95744066 0.0028708828488541263 0.001286033933053601
95773828 0.002860809591818415 0.0011597215596375722
95803590 0.0028617419602000108 0.0010095694057379433
95833352 0.002849530661863752 0.0008725229645556191
95863114 0.0028113481140263756 0.000732930366365251
95892876 0.0027613947872853774 0.0005828954930900001
95922638 0.0027135449300574026 0.0004435778218854237
95952400 0.0026485095500802247 0.0003010269972049989
95982162 0.002592707749259 0.00015731694453806805
96011924 0.0025237796367366247 0.00019958402635578576
96041686 0.002421477636242816 -0.00015884507835876356
96071448 0.0023468255974018874 -0.0002714113639940839
96101210 0.0022545263656353533 -0.0004457789616683574
96130972 0.002318584617374413 -0.0003317084761650709
96160734 0.002045626525772094 -0.0007543484587554985
96190496 0.0020444957703760398 -0.000814699773987491
96220258 0.0019580044355031424 -0.0009542655410472901
96250020 0.0018472685579489394 -0.0011261883190998925
96279782 0.001742333583312483 -0.001228992237659852
96309544 0.001670988078374299 -0.0013338874535029715
96339306 0.0015166938710449306 -0.0014962938578513122
96369068 0.001360258936753842 -0.0016211414448145918
96398830 0.0012536007825029337 -0.0017660812047052747
96428592 0.0011040697116646114 -0.0019090548633925156
96458354 0.0009459115117069079 -0.002020065599207881
96488116 0.00026390033727358175 -0.0020537208484537675
96517878 0.0005979940799011322 -0.002241596060042849
96547640 0.0005070659902944075 -0.0024552181862618995
96577402 0.00021989222083015116 -0.0024497827024086453
96607164 2.4946921269721925e-05 -0.0025310513104555787
96636926 -0.0007874114031586147 -0.002288787659579276
96666688 -0.0004015636605085493 -0.0026780484879241045
96696450 -0.0005910443357515864 -0.0027220565813772264
96726212 -0.0007769280887025489 -0.0027455394295700245
96755974 -0.00033502622523992327 -0.0031300026650412046
96785736 -0.001166845449780866 -0.0027595521905139264
96815498 -0.0007184363054219132 -0.0032174996291470903
96845260 -0.0015324071175409715 -0.002730107333586441
96875022 -0.0017182131580393933 -0.0027182507481613816
96904784 -0.0018875764717220691 -0.0027047672235066644
96934546 -0.0021012817714491385 -0.002614885760585716
96964308 -0.0022504081405088075 -0.0026339157474809887
96994070 -0.002422579009796268 -0.002605255947776331
97023832 -0.002950305182986658 -0.001764034128608162
97053594 -0.002759770605689423 -0.002546589458055957
97083356 -0.0028995922921473895 -0.0025382239092319567
97113118 -0.002613169689563889 -0.00336551565070441
97142880 -0.003248671040632654 -0.0024238993949760902
97172642 -0.0036126315858170128 -0.0014323426269949873
97202404 -0.0035330535089409696 -0.002354186650201371
97232166 -0.0036919741611471037 -0.002248034302591079
97261928 -0.003852398155103827 -0.0021926121638413277
97291690 -0.003998447306002375 -0.0020642898545066533
97321452 -0.0041638729831384854 -0.0019480744756837874
97351214 -0.004294284203676707 -0.001869318984603579
97380976 -0.004434387398762201 -0.001744955588662705
97410738 -0.00456692755446906 -0.0015918172669666965
97440500 -0.004696495307038199 -0.0014412439827353788
97470262 -0.004642315471179021 -0.0002898909094778386
97500024 -0.004919272876717776 -0.0012006994494713021
97529786 -0.005047768945334099 -0.0011108735751760663
97559548 -0.004858495871779932 8.116561012989573e-05
97589310 -0.005236699808410099 -0.0008225872129207421
97619072 -0.005311010305336204 -0.0005713924339068695
97648834 -0.005438949720637095 -0.0006106422057545979
97678596 -0.005518382225252976 -0.00042218559025354146
97708358 -0.005160640321067031 0.0007042493299599187
97738120 -0.005679865375079565 -0.00017472371915181983
97767882 -0.0057449524911686875 -3.467183645570399e-05
97797644 -0.0062112438805715445 -0.0009805881993436734
97827406 -0.005780021804973926 0.0003167006705661237
97857168 -0.005741079869450324 0.0005552741184828063
97886930 -0.005715710329360799 0.0007369649346451705
97916692 -0.006223159306742185 -2.6151159084529686e-05
97946454 -0.005630790730678527 0.0011034988279294586
97976216 -0.006154151692580306 0.0003884713682225
98005978 -0.0049031354631902625 0.002152586511115758
98035740 -0.005467606669569876 0.0015824601623504366
98065502 -0.005478967641411038 0.0016568310896839156
98095264 -0.005570459627733716 0.0016937692865537169
98125026 -0.005621274200871263 0.0017610979804384204
98154788 -0.005033153153170631 0.0024708925720735983
98184550 -0.0057982932899775415 0.0018234965188061415
98214312 -0.0058860176828241274 0.001847960731504495
98244074 -0.005247176155084299 0.0025740006224144432
98273836 -0.006098083509161542 0.001852538715729152
98303598 -0.006150625999484613 0.0019051744158907627
98333360 -0.006237980734282732 0.0019330519896862432
98363122 -0.006245970631825068 0.0019451143206423397
98392884 -0.006184547260391706 0.0020349814461801032
98422646 -0.0062081597634159906 0.002029298636442031
98452408 -0.006168086507036659 0.00207389244590987
98482170 -0.006103248679820505 0.002166799058249996
98511932 -0.0061153629707386276 0.002163140364266791
98541694 -0.005283064048183336 0.002872276143930657
98571456 -0.0060200409403849565 0.002278823182479715
98601218 -0.00673950301883682 0.001611127514746896
98630980 -0.00594408848364504 0.0023982093844137973
98660742 -0.0059114989435184815 0.002495497179278721
98690504 -0.005100193311643717 0.0031647563906900783
98720266 -0.00659029519644062 0.0020686343549097983
98750028 -0.0057830063730027696 0.0028070306359917743
98779790 -0.005741649549791592 0.0029009433538737524
98809552 -0.005751064398354525 0.0029545823635062788
98839314 -0.005651525222015618 0.0030741302978073352
98869076 -0.005645566881343123 0.003134516096974016
98898838 -0.006353164157261658 0.0027234969731845895
98928600 -0.0055707800442549625 0.0032929796271460882
98958362 -0.006369701710604613 0.002841357204695394
98988124 -0.005653156592618734 0.0033496793416420327
99017886 -0.005578293426246141 0.0034320470718650943
99047648 -0.005633141923232417 0.003433884573341099
99077410 -0.005652060504667881 0.003490883753587452
99107172 -0.005595549595071296 0.003543977271591133
99136934 -0.005662554192294494 0.0035575830556513876
99166696 -0.005748649555111191 0.0035736916357685835
99196458 -0.005529550971863914 0.003641328733516553
99226220 -0.005582881343285349 0.0036293562593280693
99255982 -0.0056398737357917 0.0036024699570548204
99285744 -0.005632805157580769 0.0036224321219343403
99315506 -0.005608168575995114 0.0036075038713886632
99345268 -0.0055972699154223605 0.0036059759115928598
99375030 -0.00552035061590963 0.003637442057412769
99404792 -0.005570918138836552 0.003608213656969332
99434554 -0.005563715587433573 0.0036089340499983113
99464316 -0.005439744672407981 0.0037154456348063363
99494078 -0.005406123766004779 0.003775304699033282
99523840 -0.005259970360522061 0.0039011570654718564
99553602 -0.005174122857875984 0.003995449411613359
99583364 -0.005792846921188554 0.0037516142873500187
99613126 -0.00426077870412006 0.004451421590052321
99642888 -0.004901470186893851 0.004250327348115815
99672650 -0.00481370824968974 0.004325969815816775
99702412 -0.0054365861884094835 0.004112616811692577
99732174 -0.004700635314752578 0.0044396225113508495
99761936 -0.004561044225590654 0.00448490697050173
99791698 -0.004847722060589722 0.0043655992224424615
99821460 -0.004816750168218115 0.004366690127460615
99851222 -0.004921080066093676 0.0043219289306033444
99880984 -0.005576095692866828 0.004047576337433647
99910746 -0.0048914532387945705 0.004305281133635276
99940508 -0.005617344102055337 0.00398942542327651
99970270 -0.004957305899389551 0.0042403480219215545
100000032 -0.004992149303922522 0.004223932849944529
100029794 -0.004969014115290378 0.004240671702238635
100059556 -0.004950962465607591 0.004270143483849762
100089318 -0.004929595243183875 0.004289978299877866
100119080 -0.004909500378163158 0.004315892751348659
100148842 -0.0048920304967980605 0.004337690715631566
100178604 -0.004875491231914129 0.004361138175519632
100208366 -0.0048544509667054255 0.004387947362947297
100238128 -0.004837755683972743 0.00440766806928142
100267890 -0.004812331447055573 0.004425731056241637
100297652 -0.004808446430653977 0.004447093892403125
100327414 -0.00480313354933842 0.004456835642049696
100357176 -0.004804631120573171 0.0044784561477226575
100386938 -0.004792576137568391 0.004486243746535749
100416700 -0.004790236002919217 0.004496985739218689
100446462 -0.004794740885939047 0.0045190014067323075
100476224 -0.004790379448202094 0.004527008628457653
100505986 -0.004789701416175877 0.004537473438825525
100535748 -0.004788666879012483 0.004553094230423072
100565510 -0.004801672930113383 0.0045739370469749015
100595272 -0.00485221884470589 0.004613587450400297
100625034 -0.004896589596661446 0.0046549290610688075
100654796 -0.004937941242247164 0.004696468661142533
100684558 -0.004989060756863849 0.004745077744150633
100714320 -0.005041508854611455 0.004781294938910441
100744082 -0.00509092127337318 0.004827312035230799
100773844 -0.0051471880657068154 0.004864151615863154
100803606 -0.005203209267734579 0.004907870280071379
100833368 -0.005263988328967388 0.0049501658256381085
100863130 -0.005200921069800306 0.004955288014264076
100892892 -0.005140902305463757 0.004951620476981446
100922654 -0.00509315216166593 0.0049557813531456016
100952416 -0.005031671980842984 0.004968738151151715
100982178 -0.004974770611032006 0.004969186678222561
101011940 -0.004921019658666595 0.004970647634261449
101041702 -0.00485952226919681 0.004976671344756962
101071464 -0.004795653595241976 0.004979811435879986
101101226 -0.004743458999951276 0.004976056838580334
101130988 -0.004730554510633812 0.004976964166084547
101160750 -0.004734139741395525 0.004989736126912862
101190512 -0.004732660601288588 0.004982885760362251
101220274 -0.004733612813909841 0.004988183897554225
101250036 -0.00473448655166128 0.00498244514827452
101279798 -0.0047337391428126105 0.004983231532005279
101309560 -0.00473334812789632 0.004986699140283189
101339322 -0.004731247502140625 0.004986371690154397
101369084 -0.004732146853252652 0.0049908990556253195
101398846 -0.004718774730543382 0.005013240972936954
101428608 -0.004656071420071473 0.005085860690996137
101458370 -0.004603282328736791 0.005158770066452477
101488132 -0.0045372055586082585 0.005227043747884567
101517894 -0.0044708728054998126 0.005300409246692537
101547656 -0.0044082943783553515 0.005368774561244936
101577418 -0.0043488019179424835 0.005432575658215421
101607180 -0.004283277042328783 0.005501244135018368
101636942 -0.004212100291854599 0.005567114365804481
101666704 -0.004144211255745126 0.00563142544422375
101696466 -0.0042231669562429975 0.005580805752353978
101726228 -0.004311342195642031 0.005529258843400497
101755990 -0.004402860597944886 0.005472902631347164
101785752 -0.004477644358329396 0.00541149149656434
101815514 -0.004564564574790565 0.00534769067630891
101845276 -0.004641266396428689 0.005280870469525025
101875038 -0.004715090645593391 0.005212937967645692
101904800 -0.004784065429251463 0.005133631740151241
101934562 -0.004857154950832468 0.005059158184330481
101964324 -0.004823989970540273 0.005081748107431854
101994086 -0.004735257415018981 0.005137617164596069
102023848 -0.004657173075750156 0.005197280649800592
102053610 -0.004568232927940202 0.005260399327333418
102083372 -0.0044811781902309505 0.0053143204772093475
102113134 -0.004385063727405911 0.005360780467210427
102142896 -0.004300518826399701 0.00540805471521073
102172658 -0.0042427169412742665 0.005454408641709919
102202420 -0.004120944845303297 0.005497272469568039
102232182 -0.004087610084817262 0.005535104332584581
102261944 -0.004175856494967827 0.005556721112236641
102291706 -0.0042567040457141565 0.005586234234264189
102321468 -0.004348002428858204 0.005611316682895883
102351230 -0.004442485929188119 0.005636408734703304
102380992 -0.004532618418701486 0.005652994732014299
102410754 -0.004634417446631521 0.005669328428913724
102440516 -0.004700724149803879 0.005692030258580577
102470278 -0.00483134225376875 0.005700443849540779
102500040 -0.004940003287915637 0.005706573981950757
102529802 -0.004878944080519996 0.0057356161019391765
102559564 -0.004818211531368807 0.005763811317662291
102589326 -0.004579189237419032 0.005766510699525949
102619088 -0.004699912093232271 0.005808481436997774
102648850 -0.004641909460885503 0.00582922709527266
102678612 -0.004597504113071855 0.005844125260228591
102708374 -0.004521826134740333 0.005873842490288404
102738136 -0.004488746790249163 0.005914624832717391
102767898 -0.004407968185289552 0.0059127806853062955
102797660 -0.004374517371176315 0.005902061942733002
102827422 -0.00436166704691702 0.0058759579472706484
102857184 -0.0043376336849155345 0.0058452485996913625
102886946 -0.004322500529549406 0.005819695514063971
102916708 -0.004307502406769839 0.005797931041382396
102946470 -0.004289457417194717 0.005771791124905278
102976232 -0.004272439920306525 0.005747013936435621
103005994 -0.0042552055670315 0.005723095929408255
103035756 -0.004237286085851355 0.005695830472941305
103065518 -0.004222820234342116 0.005692144447779279
103095280 -0.0042265842209321175 0.005724031667055128
103125042 -0.004223159919636709 0.005752207675113647
103154804 -0.004228066334890799 0.005777785664225528
103184566 -0.004227146947142569 0.005806194122951099
103214328 -0.0042292363056249645 0.00583911309909025
103244090 -0.004231540984405002 0.005868256551188582
103273852 -0.0042261450522033455 0.00590012513184493
103303614 -0.0042297703961309465 0.005929644354337217
103333376 -0.004225915285445968 0.005955828959258832
103363138 -0.004136466515105492 0.005961573989096449
103392900 -0.004044595902331009 0.005959489717491766
103422662 -0.003953957129712553 0.00595919665453847
103452424 -0.0038608123125604727 0.00596062763971223
103482186 -0.00377082005106217 0.005950715595057936
103511948 -0.003685611346298918 0.005949067205171793
103541710 -0.0035924752328500235 0.005941132125244763
103571472 -0.0035068541460769854 0.005933634499024538
103601234 -0.003423812230487912 0.005927231767632682
103630996 -0.003426676099357298 0.005920742399109945
103660758 -0.003468639320756316 0.005913557122464901
103690520 -0.0035150722107154574 0.005907847108246231
103720282 -0.0035592824414910906 0.0059015700741927805
103750044 -0.0036050538411971323 0.0058891014835913075
103779806 -0.003647770666369117 0.005883657919081009
103809568 -0.0036945036872441796 0.005871981040988991
103839330 -0.003742832919109746 0.005861448831415085
103869092 -0.0037859035594296686 0.005846840402894069
103898854 -0.003825318270335774 0.0058489947429251465
103928616 -0.0038623498374569173 0.005870173789734028
103958378 -0.003897304698716342 0.005893112922313529
103988140 -0.003934903839792472 0.005917402854093606
104017902 -0.003983205360437489 0.00593891904927986
104047664 -0.00402397965704186 0.005963417968769642
104077426 -0.004062920686836019 0.005985723917957317
104107188 -0.004105473945594209 0.006008215162548917
104136950 -0.0041482905316434174 0.0060309731543675285
104166712 -0.004194110745764804 0.006048200451787999
104196474 -0.004181624726724188 0.0060947499096673
104226236 -0.004164802679713769 0.006140436261260425
104255998 -0.00415019255986134 0.006187399234394131
104285760 -0.004133582287373719 0.0062358236822354016
104315522 -0.004122746369250876 0.006284988337748003
104345284 -0.00410823514897038 0.006329390713109582
104375046 -0.00408969303354891 0.006376786722344083
104404808 -0.004072264478083304 0.006424591699328436
104434570 -0.0040593370942414355 0.006467987675765474
104464332 -0.004043513125827771 0.006444801607942103
104494094 -0.004029642428054333 0.006388773716143256
104523856 -0.004021069637177196 0.0063314235515924844
104553618 -0.004011850619930678 0.006272831776594757
104583380 -0.003999462840005448 0.006220955061455341
104613142 -0.003988375276615269 0.006166599338760341
104642904 -0.003970440190706818 0.006108678682644979
104672666 -0.003956831380521808 0.006053819205711471
104702428 -0.0039451345136034075 0.005999024364090423
104732190 -0.003929815785068517 0.005990057921600102
104761952 -0.003912696522451689 0.006061513562306818
104791714 -0.0038933635909465195 0.006134863252450629
104821476 -0.003872773552440948 0.0062042705293208385
104851238 -0.003848546945571121 0.00628292571221997
104881000 -0.0038243853405735785 0.006358624885402472
104910762 -0.003801997005163702 0.006432087268737147
104940524 -0.0037737349552120036 0.006510426687681912
104970286 -0.003744753935593144 0.0065860064649189524
105000048 -0.0037017687334876524 0.006665250868346893
