# HZ S RI R 50
90000000 -0.0007646238687118138 0.005450699979804843
90029762 -0.0007383244164622302 0.0054863294506517675
90059524 -0.0009780398505931653 0.005505883524712832
90089286 -0.0008105565787324874 0.0055398915068321205
90119048 -0.0010292973828744374 0.005569866182772281
90148810 -0.0008953465554658199 0.005609206567070143
90178572 -0.0009748716829899138 0.005649159784553097
90208334 -0.0009324762563295917 0.005687412650010978
90238096 -0.0011437326388814466 0.005699167656159699
90267858 -0.0010313245625263785 0.0057441092025446614
90297620 -0.0010034636973565178 0.005722228977458124
90327382 -0.000922820423067025 0.005682157018420779
90357144 -0.0009483848846323 0.005635327422439895
90386906 -0.0008709443290372328 0.005591272677658193
90416668 -0.0010481023982160458 0.005537806262110828
90446430 -0.0008716179051913022 0.005501783631376492
90476192 -0.000795178534746028 0.005465555165111513
90505954 -0.0007714905237037651 0.005422674019771589
90535716 -0.000793910649271124 0.00538049570121674
90565478 -0.000717231438760372 0.005357421747212516
90595240 -0.0007294780803590996 0.005367484171741556
90625002 -0.0006922889909444034 0.005383565341686672
90654764 -0.0006095408282060759 0.005396814538750576
90684526 -0.0005729850924193048 0.005413206911380635
90714288 -0.0005809777821592508 0.005425526911837774
90744050 -0.0005419879362544742 0.005434561852131593
90773812 -0.0004574871029104355 0.005449574928404562
90803574 -0.00046596574652103074 0.005459537299128714
90833336 -0.0003810248547480279 0.005473514862003686
90863098 -0.00035854287801393786 0.00544826976162172
90892860 -0.00037811277392937637 0.005426664970007207
90922622 -0.0003118324574411572 0.0054029092810207605
90952384 -0.0002896144401002481 0.0053792203648917675
90982146 -0.00030689237218680174 0.005354033494773997
91011908 -0.0002404495128782223 0.005329463236084414
91041670 -0.00026085119897195674 0.005308375895566369
91071432 -0.00023653066839548635 0.00528327863743345
91101194 -0.0003387438348298231 0.005260763066856941
91130956 -0.00018199427985680054 0.005274054756931741
91160718 -0.0002514696592853289 0.005301844651057149
91190480 -0.00028105627396646016 0.005336241764683872
91220242 -0.00043369002207567183 0.00536245832060878
91250004 -0.0003412615900313134 0.005395492578229773
91279766 -0.0004937557317833669 0.005421517632963128
91309528 -0.00036314273450702367 0.005455940140391253
91339290 -0.0004354756601928854 0.0054853209865483995
91369052 -0.00042911109731855846 0.005512490039911703
91398814 -0.0006108575066184786 0.00551700745230392
91428576 -0.00048614344603846975 0.0054976397341969345
91458338 -0.0004391685972320935 0.005476172720277384
91488100 -0.00047471280306467223 0.005448714926930677
91517862 -0.00047052869513246684 0.005424372285043062
91547624 -0.0004260720557578969 0.005405022467954716
91577386 -0.0004216942559317908 0.005376728101643727
91607148 -0.0005192898835524588 0.005357132937051176
91636910 -0.00044641348173619894 0.005327952252756365
91666672 -0.00040502657362008227 0.0053065125151647175
91696434 -0.0003684363583439828 0.005318412108634214
91726196 -0.0002576905905264097 0.0053327285064284835
91755958 -0.0001832498345433262 0.005344698358102866
91785720 -0.00016235943300835185 0.00535211999455462
91815482 -3.3071348461290566e-05 0.005362151451453766
91845244 4.357812982629869e-05 0.005368630445187551
91875006 8.349634851983363e-05 0.005371680771930486
91904768 4.1560860495873736e-05 0.005379071912551687
91934530 0.00024141285969397024 0.005376042067109334
91964292 0.00026644424799549823 0.005388624240702633
91994054 0.00024051426034785191 0.005420505676745579
92023816 0.00017276331633962416 0.005434222328533298
92053578 0.0002800631489840233 0.005452360772929245
92083340 0.00028090906106859883 0.005473758813442863
92113102 0.00031935628253254496 0.005495163538774986
92142864 0.0002882781802331833 0.005516347733440958
92172626 0.00032658518060258167 0.005536682673390156
92202388 0.0001956578805989559 0.005558430119901183
92232150 0.00028944204701908 0.005553544073624321
92261912 0.00017612556859465645 0.005505303565919038
92291674 0.0002893719175053888 0.005452423253976916
92321436 0.0002435881371837855 0.005399931425564054
92351198 0.0002587951088805434 0.005349967658214944
92380960 0.00021411254036865366 0.00530071423317437
92410722 0.00020196470297954584 0.005246553943021808
92440484 0.000218522669224796 0.005201311130053574
92470246 0.00020673705606701816 0.005153154841678508
92500008 0.00016947666033318156 0.005102361870861373
92529770 0.00016887636746452378 0.005120805684107172
92559532 0.00019787252214091544 0.005139507361447396
92589294 0.00016694819722828195 0.005159127945015823
92619056 0.000198185359510495 0.005178530291692596
92648818 0.00019811786996763644 0.0051960017602172915
92678580 0.00017238536838714208 0.005215118664397345
92708342 0.0001960090147172315 0.0052343315816392386
92738104 0.00020028173613968503 0.005251141081288514
92767866 0.0001729629246800918 0.005269461344075676
92797628 0.00022481340830567486 0.0052810927223708795
92827390 0.0002303944561305373 0.005290006216238522
92857152 0.0002663630476448538 0.005289930835779261
92886914 0.00022592729462238251 0.0052918393905064505
92916676 0.00036606304782079373 0.005304332399417048
92946438 0.0003778956464093911 0.005303984967277784
92976200 0.0003679245910137086 0.005311411805982571
93005962 0.0003799115933670408 0.005307306874221353
93035724 0.0004919908218032153 0.0053150798235409155
93065486 0.0004735871465558922 0.0053098433996969455
93095248 0.000656264923850916 0.005294063730830839
93125010 0.0007158497402580387 0.005276471710144839
93154772 0.0008249858480958589 0.005256255704161549
93184534 0.0008133328962064568 0.005236557930093656
93214296 0.0009943565955724844 0.005194482438256926
93244058 0.0009648305254871115 0.0051889133761866225
93273820 0.001084129980773568 0.005165167204552734
93303582 0.0012297016239688544 0.005115529298217393
93333344 0.0013320381702124776 0.005076945924313145
93363106 0.0012924633687431072 0.005088653420460342
93392868 0.0011953321031741965 0.005106264606545716
93422630 0.0011868125610981408 0.005106676869950671
93452392 0.001149682187896685 0.005114535018362037
93482154 0.0010854782379425573 0.005116860433196027
93511916 0.0010648196423175525 0.005119500326934824
93541678 0.0010651820693820771 0.0050962624361602545
93571440 0.0009553297230954483 0.005116684453970404
93601202 0.0009340731948249964 0.005114676949932315
93630964 0.0009672199920528247 0.0051002049147540925
93660726 0.0010143711545674318 0.005084332954219709
93690488 0.0010961570328570233 0.005060875755419516
93720250 0.0011880139483573424 0.004995557233979661
93750012 0.0012071128902670584 0.0050176073561208605
93779774 0.0012900434078006212 0.0049954520123913545
93809536 0.0012840096731962848 0.004969845354286799
93839298 0.001402869487912298 0.004942880492073306
93869060 0.0014672820315241252 0.004914979246150413
93898822 0.0015397911087965499 0.004879243959858422
93928584 0.0015470459723284616 0.004853039971713813
93958346 0.001590606596078065 0.004817625933454623
93988108 0.0015498194763951994 0.004793438914540741
94017870 0.0016245819693477645 0.0047522394770809434
94047632 0.0016035264822728235 0.004721036659913604
94077394 0.0016913989958176041 0.004682959696304641
94107156 0.0017064593284117538 0.004648518001940459
94136918 0.0017489862728902533 0.00461021379302832
94166680 0.0017614672270102926 0.004570986082345447
94196442 0.001829990613301188 0.004790522440693999
94226204 0.0018556093106678094 0.005035444160944988
94255966 0.001997502022939175 0.005298087529707395
94285728 0.0020542249803852304 0.0055961146347634555
94315490 0.002125975339580606 0.005935611090076949
94345252 0.0022089355597214337 0.00632033153816547
94375014 0.002248368864267158 0.006760541184517031
94404776 0.0023184528603304925 0.0072680188851267065
94434538 0.0023382983937361526 0.007851929342398334
94464300 0.0023362674453953685 0.007571541288845849
94494062 0.00236878015591964 0.006911814947251287
94523824 0.0023655469775428744 0.006336752963086449
94553586 0.0023247820880413234 0.005837955322242221
94583348 0.002309732348006627 0.005396966619694522
94613110 0.0022609367918249947 0.0050093794885386995
94642872 0.0022262937709123473 0.004656980248560868
94672634 0.0021982617597441695 0.004343042536079816
94702396 0.0021614340249357287 0.004063128193192908
94732158 0.0021316693178977 0.003861299723122569
94761920 0.002150811705679072 0.0037805589034058847
94791682 0.0021491935293470486 0.003702175814046612
94821444 0.0021975712354825507 0.003615197690941515
94851206 0.0021951377428369658 0.0035373163629441873
94880968 0.0022487767134618574 0.003446298066008914
94910730 0.002259185073622799 0.003366083342955052
94940492 0.0022878960919105163 0.0032798429914766155
94970254 0.002276479942146831 0.003204525608760595
95000016 0.0023149025806173556 0.003108848370935843
95029778 0.0023259940569297505 0.0030773446588716756
95059540 0.002370677759143787 0.0030329589496831694
95089302 0.0023984508221449098 0.0029942395669613044
95119064 0.00243153833551263 0.002943316608173373
95148826 0.002437603223438569 0.002910259571715169
95178588 0.0024828472547184857 0.0028534841050035023
95208350 0.002510857747887458 0.0027996604937055407
95238112 0.002539729097408109 0.0027452641675513017
95267874 0.002564500280774624 0.002687936979966655
95297636 0.0025963112772271245 0.002616456476900725
95327398 0.002621151535512508 0.002531080762506534
95357160 0.002640245309740545 0.002445346894820937
95386922 0.0026617740297083547 0.002351607197360342
95416684 0.0026826734471748176 0.0022623049113433373
95446446 0.002696443631878787 0.0021723436915275737
95476208 0.002719423228931002 0.0020707519904293805
95505970 0.002731067541279739 0.0019692251427710925
95535732 0.002741011889323682 0.0018607471383130095
95565494 0.002757663737962545 0.0017468733592562254
95595256 0.002778260096850166 0.0016251409023531021
95625018 0.0027836053806473697 0.0014931247364428672
95654780 0.002793881418692622 0.0013554193223900863
95684542 0.0027985716894322623 0.0012228428800035707
95714304 0.002794499344474803 0.0010858789547838503
95744066 0.002790834564165366 0.0009389552323246732
95773828 0.002776316409242995 0.0007940460133884684
95803590 0.002759914546143988 0.0006431135297478172
95833352 0.002725275519629597 0.0004975643843621497
95863114 0.00265942758576065 0.0003379872760694348
95892876 0.0025990819273912073 0.00020350910022919023
95922638 0.002539283723197289 5.846133380334411e-05
95952400 0.002470101479079809 -8.690295944999263e-05
95982162 0.002382721949108917 -0.00022523974983279887
96011924 0.0023893334595084066 -0.00012469580262618603
96041686 0.0021987463168232904 -0.0005099239121413485
96071448 0.002135312046654824 -0.0005678479744450606
96101210 0.0020021506142292663 -0.0007590365788737397
96130972 0.0020990865418767926 -0.000698947714373524
96160734 0.0018049080015727235 -0.0010412574942200085
96190496 0.0017209551856984973 -0.0011535316648517248
96220258 0.0016007854365863588 -0.0012941545444613153
96250020 0.0014889431097392515 -0.001431640576464989
96279782 0.001378900337054499 -0.0015586282419996222
96309544 0.0012396054385698135 -0.0016723827761076628
96339306 0.0010968647185711814 -0.001666621405058267
96369068 0.000949455621139073 -0.0019238663264687852
96398830 0.0007868215532779256 -0.0020350146199192213
96428592 0.0006456053156339882 -0.002142217409939404
96458354 0.00045393129297983546 -0.00224744885254596
96488116 -0.0003681903117087419 -0.0020724919654282062
96517878 5.7022359316735556e-05 -0.0024325760499157097
96547640 -0.00012904508792725464 -0.0025183883827238334
96577402 -0.00035248378709262855 -0.002588083941435572
96607164 -0.0005180422432825443 -0.0026612440742463587
96636926 -0.0013343270786617845 -0.0022445476598335966
96666688 -0.001039501213043938 -0.002689828608710889
96696450 -0.0011819111556161505 -0.002746920944158468
96726212 -0.001381145562360431 -0.002738687155229354
96755974 -0.0009427739625809916 -0.003242172494184646
96785736 -0.0017541769747741393 -0.0026957562401007263
96815498 -0.0013434368070764546 -0.0032693520742060707
96845260 -0.0020855988597713116 -0.0027109175081158443
96875022 -0.002275698396047675 -0.0025955582065194356
96904784 -0.002444466648549168 -0.0025546543666208725
96934546 -0.0026310335399034523 -0.0024438904950579527
96964308 -0.0027751390766382776 -0.0024331887862311867
96994070 -0.0029453483484353045 -0.002403484755658791
97023832 -0.003359725182647671 -0.0014477857277117433
97053594 -0.0032673080816153525 -0.002303520911443207
97083356 -0.003409712079056004 -0.00226449513774267
97113118 -0.0032032326270694266 -0.0031782169906062366
97142880 -0.003698492991081374 -0.0021370550494814087
97172642 -0.0039283262844331465 -0.0010815891689041038
97202404 -0.00396976972557955 -0.002048003058605906
97232166 -0.004102194346158366 -0.0019289828198163386
97261928 -0.0042386097974019595 -0.0018400625656206863
97291690 -0.004378591659495122 -0.001681715186737782
97321452 -0.004498234335865651 -0.0015709029732619703
97351214 -0.0046321511645294605 -0.0014927470126659256
97380976 -0.004751680502533502 -0.0013513557106788205
97410738 -0.004851342513520876 -0.0011969560296124116
97440500 -0.004960749802105039 -0.001055920461775528
97470262 -0.00479235430610625 8.304442950583067e-05
97500024 -0.005135089479797042 -0.0007936869875761242
97529786 -0.005259679781211822 -0.0007058649790127239
97559548 -0.004957479397091423 0.0004605132469763873
97589310 -0.0054095467841651585 -0.00041375199155069037
97619072 -0.005456002953006002 -0.0001778969291470906
97648834 -0.0055841139787001556 -0.00019962570116920398
97678596 -0.00565195189862029 -2.3168923025141e-05
97708358 -0.005194670447339994 0.0010535942571887288
97738120 -0.005771102759469976 0.00023249449589630807
97767882 -0.0058151861711382945 0.00036667886889843405
97797644 -0.006338404813651862 -0.0005385654363541831
97827406 -0.005821579367510783 0.0006851136618117256
97857168 -0.0057627303610235 0.000918742097092208
97886930 -0.005708155390984398 0.0010888776721502977
97916692 -0.006252870122135615 0.000372720170920164
97946454 -0.005606037671168395 0.0014182279900295846
97976216 -0.0061637415924815225 0.000749375747555818
98005978 -0.004832704462691337 0.0023950270874650123
98035740 -0.005422361023924441 0.0018781371831980583
98065502 -0.0054267752147873875 0.001933721465372046
98095264 -0.005508994189553868 0.0019734193637468856
98125026 -0.005561327904577771 0.0020288629934663172
98154788 -0.004948073490929959 0.002689335142883616
98184550 -0.005723913902542617 0.002093964000222845
98214312 -0.005814888650307258 0.0021141178298710187
98244074 -0.005158709085197797 0.0027801913403979217
98273836 -0.006019716050733905 0.0021176586776460228
98303598 -0.0060689582595392635 0.002175015043675233
98333360 -0.006158769620401924 0.0021883174456580243
98363122 -0.006169371855026913 0.0022005930593164817
98392884 -0.006097443320928536 0.002276447310971571
98422646 -0.006112200939761428 0.002282033949105967
98452408 -0.006084141225835429 0.002319940100838123
98482170 -0.006014218284548202 0.002394026072401364
98511932 -0.0060236099166954575 0.002395150364404725
98541694 -0.005184998863721817 0.003039672881412262
98571456 -0.005925546903434508 0.0024932029986244877
98601218 -0.006641245548331667 0.0018571775191800908
98630980 -0.005852131209820699 0.002596363278483818
98660742 -0.005808288299682561 0.002684547864833436
98690504 -0.005003097355267724 0.003304903243244406
98720266 -0.006488392906057649 0.0022923678008762525
98750028 -0.005673041164119927 0.0029735489091231976
98779790 -0.0056325850090211795 0.00305654841747356
98809552 -0.005632341788334408 0.0031158079773653553
98839314 -0.005526395809015311 0.0032366661109148836
98869076 -0.00554120039345502 0.0032850288709376403
98898838 -0.00622962925394859 0.002901021448327874
98928600 -0.00546232263777038 0.0034379636389839864
98958362 -0.006245210955515493 0.003008868204807599
98988124 -0.005520968069840406 0.0034775178952064054
99017886 -0.0054980836434310445 0.003575910266240314
99047648 -0.005559303953359859 0.003583793053205532
99077410 -0.0055081963368119186 0.003653224950405052
99107172 -0.005511831934730701 0.00368704129129526
99136934 -0.005586013722574607 0.0036919398458283696
99166696 -0.005593195665261048 0.003724417850636118
99196458 -0.005518921257481818 0.0037606879619187378
99226220 -0.005508830545639228 0.0037615123150310284
99255982 -0.005552108694080409 0.003741137768579408
99285744 -0.005486148096923149 0.0037649018430113246
99315506 -0.005522639885443341 0.003736032630378327
99345268 -0.005513468389814009 0.0037329667013193454
99375030 -0.005442576624949097 0.0037573778117450927
99404792 -0.005490991908352105 0.0037227587502928964
99434554 -0.005474308512490467 0.003722726299518954
99464316 -0.005349742536413169 0.0038160568134289813
99494078 -0.0053228737158900535 0.003882091157029859
99523840 -0.005179984307026969 0.003999011072335612
99553602 -0.005088657169155065 0.004083906920647092
99583364 -0.005693128626693609 0.003866314986559601
99613126 -0.004185137139963892 0.004527191196916711
99642888 -0.004816799607068175 0.00432984479300617
99672650 -0.004732444557254337 0.004405128627529337
99702412 -0.00531256157109322 0.004219270711458493
99732174 -0.004585211906652661 0.004516817993223601
99761936 -0.00444200659827059 0.0045601962857851385
99791698 -0.004719075633520268 0.004455589754867963
99821460 -0.0046975676452743545 0.004450537767601169
99851222 -0.004799478696599037 0.0043988132915358195
99880984 -0.005445175068983145 0.004143172909149216
99910746 -0.0048074873517019515 0.00437601626956503
99940508 -0.005519883373868651 0.00408020418007253
99970270 -0.004871634652690986 0.004307998331319461
100000032 -0.005034378574027229 0.0042633673824889005
100029794 -0.004877857546087799 0.004310042324047733
100059556 -0.0048538969977438 0.004341606489969285
100089318 -0.004838330605263224 0.004360928503857023
100119080 -0.004813476064458953 0.004382238222617374
100148842 -0.004802893044913099 0.004398594405690086
100178604 -0.004780864259234295 0.004425077081486418
100208366 -0.004832665721772226 0.004422288775517344
100238128 -0.004913168015063574 0.004419969134213322
100267890 -0.004723451041180493 0.004482214672784317
100297652 -0.0047130431222288695 0.0044942532859897555
100327414 -0.004710663538115283 0.0045157765001580565
100357176 -0.004703944661539773 0.004519584901763461
100386938 -0.00467171688977122 0.004547139912574608
100416700 -0.004853616363966338 0.00451323454943233
100446462 -0.004659077350516773 0.004567740315302911
100476224 -0.004726165608889336 0.004563390124817928
100505986 -0.004713260761136109 0.004583785647173597
100535748 -0.004716085990643946 0.00459045616472342
100565510 -0.004863386099429276 0.004582622673927079
100595272 -0.004784530583213741 0.004647019772967637
100625034 -0.00483038428141348 0.004683434196704459
100654796 -0.004907159317590272 0.004727885999121044
100684558 -0.004888066507181884 0.00478040423917281
100714320 -0.004933879244775534 0.004820927720173795
100744082 -0.004997292987062162 0.004850266627679593
100773844 -0.005058572686692767 0.004896829986016148
100803606 -0.005111746064257628 0.004938271823308822
100833368 -0.005155302853582877 0.004978308220610598
100863130 -0.005110706877526399 0.00497174195172784
100892892 -0.005058177672274222 0.004986438690128287
100922654 -0.004996963202429921 0.004986764521553686
100952416 -0.004943472708658042 0.004986111234828687
100982178 -0.004887505474135204 0.004980459652656839
101011940 -0.004832253163767483 0.004996632055929259
101041702 -0.004779352560090901 0.004993061877105988
101071464 -0.004718447009267088 0.004997210462465078
101101226 -0.004668806998408186 0.004995219459334842
101130988 -0.004645651935785055 0.004995521123346812
101160750 -0.004629279848662921 0.0050026047237989825
101190512 -0.004652270287303459 0.004999541611227957
101220274 -0.004647283215729499 0.004996345306826311
101250036 -0.004655706003382568 0.0050020229000757865
101279798 -0.004656139650030753 0.004998576277404367
101309560 -0.004656589187870569 0.004993237336470065
101339322 -0.004659460678888368 0.004994688253488267
101369084 -0.004653058782206854 0.004987151744949169
101398846 -0.004634540343505525 0.00501598430412168
101428608 -0.004574738964626507 0.0050903060002151675
101458370 -0.004516821412253033 0.0051610638407358295
101488132 -0.0044554537123636445 0.0052366354418340155
101517894 -0.004402408867517678 0.005299640709084888
101547656 -0.004335362932504207 0.00537105814553363
101577418 -0.004306227315655203 0.005432282804362086
101607180 -0.004211510197297684 0.005497713328563538
101636942 -0.004141561893564787 0.0055649266923607785
101666704 -0.004068381091694847 0.005625932136066952
101696466 -0.0041540625085533705 0.005579331919360733
101726228 -0.004239988814987768 0.005525979824214323
101755990 -0.004328875784574676 0.005472424062295044
101785752 -0.00450552697245163 0.005406533022454353
101815514 -0.004493458561363631 0.005345008951042685
101845276 -0.004568937628069949 0.005280686540818975
101875038 -0.0048075592801168215 0.005195109190427228
101904800 -0.004724889511466224 0.005139322459740244
101934562 -0.004791367981301588 0.005068955733771074
101964324 -0.00475964980995435 0.005080364985969487
101994086 -0.004680557401321572 0.0051284331457106345
102023848 -0.0045313166280572855 0.005191623549670642
102053610 -0.004503431583601207 0.005257891956857175
102083372 -0.004417551933748143 0.005307342127988322
102113134 -0.004216265197328398 0.005340429731107316
102142896 -0.004235063455656871 0.005408477944644448
102172658 -0.004148122751653151 0.005450482107407988
102202420 -0.00406346300910496 0.0054956927325826395
102232182 -0.003969638402019075 0.005521472531633132
102261944 -0.004117766218339174 0.00555539302245691
102291706 -0.004201518353144019 0.005578776547131374
102321468 -0.004288812720263238 0.005603594592990213
102351230 -0.004386423915510341 0.0056235127806722515
102380992 -0.004474712301181444 0.00564825733733584
102410754 -0.0045786867904838826 0.005666594311426176
102440516 -0.0046717786711022394 0.0056834283568576545
102470278 -0.004778918724099535 0.0056920236451587424
102500040 -0.004885788402161911 0.005703692949217364
102529802 -0.004828705993454947 0.005730949483061798
102559564 -0.004770368817125357 0.005750584132240676
102589326 -0.004709921357505678 0.005779709381763901
102619088 -0.00465367672032994 0.005807578120324833
102648850 -0.004591839929242733 0.005823430815423029
102678612 -0.004532511428906608 0.005838113981471039
102708374 -0.004478223024665085 0.005865227487458964
102738136 -0.004422444011026607 0.0058802544018158745
102767898 -0.0043622513920436486 0.005894836992593571
102797660 -0.004334093920405485 0.00588890551466277
102827422 -0.004318315387614082 0.0058672525827343
102857184 -0.004299341612693968 0.005837262190998454
102886946 -0.004284919252143813 0.005811219685911389
102916708 -0.004261223625073111 0.005792411869301977
102946470 -0.004251908823258581 0.005763212019636234
102976232 -0.004239280437857017 0.0057391941836567525
103005994 -0.004213378729969273 0.005709364329310396
103035756 -0.004204163162469535 0.0056868369832158445
103065518 -0.004187657421727271 0.005677365190210401
103095280 -0.004194199462890752 0.005709149381063705
103125042 -0.004195131362626544 0.005740866047869621
103154804 -0.0041954974528592625 0.005772778475741511
103184566 -0.004201866313055076 0.005801614016690648
103214328 -0.004201039062202743 0.005832931971695101
103244090 -0.004169740631354752 0.005861384369779035
103273852 -0.004202298938489595 0.005889901489797474
103303614 -0.004201697064940755 0.005917741914740011
103333376 -0.004203528126091386 0.005944890183457163
103363138 -0.004110648174048129 0.005946195752446075
103392900 -0.004013581463858743 0.0059474242348178585
103422662 -0.003923709799831284 0.005944522965245069
103452424 -0.0038368150164785884 0.005949334511987998
103482186 -0.003747237208497692 0.00594337270410649
103511948 -0.0036617490245494846 0.005941042395542365
103541710 -0.003572812892150349 0.00593243340324259
103571472 -0.0034896737081169266 0.00592832989184414
103601234 -0.003407696613262738 0.005917791569557917
103630996 -0.003409962378785915 0.005912992483058186
103660758 -0.0034482802725809888 0.005910509167563423
103690520 -0.003497228209889405 0.005902578051054678
103720282 -0.003536875683657663 0.005892476186429609
103750044 -0.0035858475348612205 0.005884127578513633
103779806 -0.003633716408064852 0.005871847999201584
103809568 -0.0036758706266599587 0.005858812345919332
103839330 -0.0037245547657839004 0.005852253606603726
103869092 -0.0037694226207193936 0.005838978693800272
103898854 -0.003813269703394288 0.005839157535132761
103928616 -0.0038512385209154474 0.005862806111291709
103958378 -0.0038840074519746652 0.0058906987559600174
103988140 -0.003923393563496285 0.005914812012455206
104017902 -0.003964440743434334 0.005934961085624032
104047664 -0.0040052451074495815 0.005959265806272289
104077426 -0.004046939250461542 0.005978324239391069
104107188 -0.004090258705151005 0.006002997539313893
104136950 -0.004132066465975857 0.006024246879194904
104166712 -0.004176983606538303 0.00604777034771596
104196474 -0.004165082432529679 0.0060917852695982445
104226236 -0.004149819624336785 0.006138924486390367
104255998 -0.004131473410395724 0.006181185113847725
104285760 -0.0041193371969932766 0.0062267901409279
104315522 -0.004105783827552564 0.006278861594367856
104345284 -0.004118580660130285 0.006323875900031154
104375046 -0.004101846663685229 0.0063722035542367805
104404808 -0.004087372105955303 0.006421637851680362
104434570 -0.004074262183456261 0.006464398119891276
104464332 -0.004063093713989065 0.006449729957313625
104494094 -0.004049136632294187 0.006390778045908012
104523856 -0.004037713171016974 0.006333357238155844
104553618 -0.00400251371613329 0.00626638604540788
104583380 -0.0039849703766522025 0.006211233374016478
104613142 -0.003971912644958881 0.006155803657992669
104642904 -0.003963068948407556 0.006098353325397785
104672666 -0.00394780514821552 0.006050051510372729
104702428 -0.003929793813171332 0.005996532664417767
104732190 -0.003921092659802341 0.005988408347495168
104761952 -0.0038986282224266634 0.00605869392083498
104791714 -0.0038783920310881304 0.006130510232959339
104821476 -0.0038573104227195057 0.006209730127945683
104851238 -0.003834309367993581 0.00628152481403681
104881000 -0.003810789570488564 0.006357116293652484
104910762 -0.0037853008118468707 0.0064301252998682805
104940524 -0.003762616299442529 0.006505699153397783
104970286 -0.003734316152497092 0.006585689302020442
105000048 -0.003695303115212752 0.006666017023797794
