# HZ S RI R 50
90000000 -0.0007721115420673564 0.005447756171595361
90029762 -0.0007283070175474819 0.005480915891028758
90059524 -0.0009674223492662948 0.005503570241474197
90089286 -0.0008304881948906325 0.005540669906650321
90119048 -0.0010207450282351735 0.005562266661618985
90148810 -0.0008840882449977141 0.005608602502390943
90178572 -0.0009116553445595042 0.00563790824456936
90208334 -0.0009206999725545096 0.005685588695584324
90238096 -0.0011662917919003568 0.005700841836340413
90267858 -0.0009992006865156644 0.0057350972862509385
90297620 -0.0009565155672832953 0.005705646388958171
90327382 -0.0009473774844037542 0.005683663584184045
90357144 -0.0009366462083380149 0.005627377584869521
90386906 -0.0008584652174682531 0.005588249109787567
90416668 -0.0010370901290131444 0.005531203061786213
90446430 -0.00085877964534294 0.005497553934238194
90476192 -0.0007828331500967167 0.005458484999949899
90505954 -0.0007583335716014545 0.0054148191359284885
90535716 -0.000783666893123923 0.0053723276473868825
90565478 -0.0007064612426102812 0.005350869017929765
90595240 -0.0006859528271952646 0.005356091014998292
90625002 -0.0006820713374372598 0.0053777106170208025
90654764 -0.0005969386094819793 0.005392965473646507
90684526 -0.0005589346125825022 0.005405447213843565
90714288 -0.0005672268371278967 0.005415738895785605
90744050 -0.0005303378946466905 0.005430030164748891
90773812 -0.0004457788306271806 0.005443952985127554
90803574 -0.0004510033509580036 0.005454232094058878
90833336 -0.0003684252262458939 0.005465486367654361
90863098 -0.0003438993798046123 0.005441295207877563
90892860 -0.00036654709970156596 0.005417150770059603
90922622 -0.0002986785170637619 0.00539359184677265
90952384 -0.00027232342041652125 0.005370350800357059
90982146 -0.0002924560226341009 0.005345321474077293
91011908 -0.00022756666741749828 0.00532471819641312
91041670 -0.00024592413706351794 0.005301553404668513
91071432 -0.00022283971304250106 0.005275014963155711
91101194 -0.0003239672054621125 0.005253914712354081
91130956 -0.00017007928751460558 0.0052636980296887894
91160718 -0.0002371836552317177 0.00529654554947387
91190480 -0.00026518138233760946 0.005326065061408709
91220242 -0.0004180746266586236 0.005356292907634251
91250004 -0.00032297707248910446 0.005387325649361542
91279766 -0.00047827082550423435 0.005413710447625323
91309528 -0.00034491642124106727 0.005445760741779372
91339290 -0.00041922112445919854 0.005473500889255085
91369052 -0.0004101018798119906 0.005507198971869016
91398814 -0.0005945590333566525 0.0055122548920358404
91428576 -0.0004687422525785824 0.00549005852687917
91458338 -0.00042335769545924544 0.005467751117437166
91488100 -0.0004554881826606215 0.00543991739216767
91517862 -0.00045209247310150835 0.0054154058800197765
91547624 -0.0004093953589493989 0.005393094336155988
91577386 -0.0004034421395855472 0.0053718189899819024
91607148 -0.0004358956300010455 0.005344130346991378
91636910 -0.00043027234256186986 0.005318837435510355
91666672 -0.00038699572966345726 0.00529923809422212
91696434 -0.0003515731826100122 0.005309446773929371
91726196 -0.0002384778885217327 0.005323387463178426
91755958 -0.00016590043018198378 0.005334917375884686
91785720 -0.0001256753342810866 0.005341925928960131
91815482 -1.4216353936620215e-05 0.005351181871202692
91845244 6.30437334474584e-05 0.005357327551790754
91875006 0.00010461005467582996 0.005359286747780785
91904768 7.770339600267946e-05 0.005365051852976532
91934530 0.0002593487338385233 0.005363163809737784
91964292 0.00028872513919240926 0.005374668002133252
91994054 0.0003265494699221997 0.005394644479800485
92023816 0.00019425941702934892 0.0054185695042570665
92053578 0.00030003602883299155 0.005437713207571766
92083340 0.00030560762328804114 0.005456846215219794
92113102 0.000340500815226166 0.0054772866625989024
92142864 0.0003099508352193501 0.00550033437017022
92172626 0.0003464127769262518 0.0055210940169243515
92202388 0.00021809072002337983 0.005545584734648928
92232150 0.00031527752671313544 0.005540886303898413
92261912 0.00019787793790685331 0.005490838388061969
92291674 0.0003118858440837673 0.005434395630534047
92321436 0.0002649816816706341 0.005385453827368487
92351198 0.000283985401396155 0.005334738346280469
92380960 0.00023617951025357145 0.0052834178849348965
92410722 0.00022476612148114822 0.005235441892244286
92440484 0.0002422647032131266 0.0051831263214436865
92470246 0.00023095522628429076 0.005136418077885614
92500008 0.0001918809232311799 0.0050861987360667875
92529770 0.00019253531474067192 0.005102868370113607
92559532 0.00022177532341754674 0.005124760692730783
92589294 0.0001944499030091523 0.005141012658534224
92619056 0.00022629768297915924 0.005157915649852032
92648818 0.0002254207890204119 0.005178103467562416
92678580 0.0001997046250455405 0.005193913474121369
92708342 0.0002284859629249228 0.005216899830636156
92738104 0.00022636386118239947 0.005234595237549685
92767866 0.0002014763940203401 0.0052500801939789786
92797628 0.00025099870858292313 0.005263116239287706
92827390 0.0002612267024530071 0.005265252556678178
92857152 0.00029717221101836755 0.005269742671793852
92886914 0.0002569243301189364 0.005270159292974261
92916676 0.00039904547200330883 0.005280137130549361
92946438 0.0004082793013619944 0.005280674474148809
92976200 0.0004473302944406451 0.005286620985747439
93005962 0.0004101582823696938 0.005285288101174681
93035724 0.0005257180234009416 0.005288754011496674
93065486 0.0005048112568756741 0.005281991349667142
93095248 0.0007212809372907568 0.005253827271179125
93125010 0.0007773721728146025 0.0052411792374143186
93154772 0.0008557075404211062 0.005229665316172529
93184534 0.0008586578217192893 0.005199722971982606
93214296 0.0009710811878781496 0.00518964460188621
93244058 0.0010417164193281317 0.005141443346664473
93273820 0.0011647364245232384 0.005120584040224143
93303582 0.0012470677594881578 0.005089012854453937
93333344 0.0013506321115990842 0.00505139782619685
93363106 0.00129253492298721 0.005066578835186962
93392868 0.0012453534682972797 0.005069497797463969
93422630 0.0012053987999211516 0.005075557285872279
93452392 0.0011849713494944416 0.005076696171359349
93482154 0.0011213283566620916 0.0050849324427127834
93511916 0.0011038247991768159 0.0050834684899634846
93541678 0.0010913596623524247 0.005072148056225409
93571440 0.00100064207533687 0.005081170874216937
93601202 0.0009780510778365948 0.005069548568837553
93630964 0.0010079178119037227 0.005063731276178712
93660726 0.0010545967707985022 0.0050437476559408905
93690488 0.0011400096254165128 0.005020432942898531
93720250 0.0011168021260259888 0.005052850952267519
93750012 0.0012496002880253258 0.004976384204796282
93779774 0.0013362768242875607 0.004950763628651331
93809536 0.0013258079785830274 0.004927214269852906
93839298 0.001448359391013691 0.004894304390953696
93869060 0.0015128057833445373 0.004867469359606336
93898822 0.0015829653063052045 0.004833838524635497
93928584 0.0015914664131635944 0.004804045969421889
93958346 0.0016328199107250032 0.004764717205891774
93988108 0.0015940537234370102 0.004737244222353799
94017870 0.0016717739080008424 0.004699073057257922
94047632 0.0016523253396548792 0.0046647550531331
94077394 0.0017412699530818668 0.004624361011307057
94107156 0.001751394430083986 0.004588698239154604
94136918 0.001792042701801878 0.004551654840525584
94166680 0.0018083576117428378 0.004513207280711266
94196442 0.001882309907111742 0.004722886540354601
94226204 0.001914026471581222 0.004964985608561704
94255966 0.0020515106004945585 0.005223601225706137
94285728 0.0021151940974988466 0.005517374187329542
94315490 0.0021984140995456934 0.00584844065218626
94345252 0.002290526445808498 0.006223037907861346
94375014 0.0023415158994244717 0.006658539009648125
94404776 0.002412605303525657 0.007157513798760557
94434538 0.0024418175242892806 0.0077371599485909935
94464300 0.002436423653940285 0.007453302037820612
94494062 0.0024632015654125774 0.006787900216381281
94523824 0.0024460206346234832 0.006219265001912126
94553586 0.002407079282588039 0.005722422035271348
94583348 0.002381852273124083 0.005284649303376341
94613110 0.002336341821220893 0.00489855771327494
94642872 0.002291678646858275 0.004553887402108257
94672634 0.0022642084084395784 0.004241310067830356
94702396 0.0022170994184906884 0.0039605581847982395
94732158 0.002189111361131364 0.003758203399231955
94761920 0.0022099785144039314 0.003673179744237094
94791682 0.002203381039876038 0.0036002048897752353
94821444 0.0022549800930136486 0.003506673015659033
94851206 0.0022468850238686667 0.0034267194235736383
94880968 0.0023003233013560416 0.0033392339414124125
94910730 0.0023167132197266208 0.0032534504056894215
94940492 0.0023378809717405163 0.0031602393469045823
94970254 0.0023261541586817283 0.0030833947279303633
95000016 0.0023637417403338805 0.0029873890329936725
95029778 0.002375362538277974 0.0029527259867557828
95059540 0.0024186220180529797 0.0029033426533821875
95089302 0.002449021637018102 0.0028547823527258235
95119064 0.002482410294640196 0.002807423455080344
95148826 0.0024890807689163853 0.002769583596450869
95178588 0.0025321175664005115 0.0027025778141072567
95208350 0.0025566869252532497 0.0026512325554048865
95238112 0.002593831149847216 0.0025912635496437293
95267874 0.0026105102938578516 0.0025296992585316803
95297636 0.002644429820433627 0.0024486311176776295
95327398 0.0026600654700955316 0.0023596670357019785
95357160 0.002681215770074343 0.0022671257609953406
95386922 0.0027062716586625604 0.002170593870040917
95416684 0.0027282487873375024 0.002072249436841705
95446446 0.0027340281776504017 0.001973991977016069
95476208 0.00275702387465345 0.0018649396012439241
95505970 0.002758150593632196 0.001762605176452942
95535732 0.0027600652119882055 0.0016504124719952612
95565494 0.0027775189004531965 0.0015332458994637378
95595256 0.0027881509820583705 0.0013952073732856059
95625018 0.002788703048530803 0.0012593172314850755
95654780 0.0027957472676539926 0.0011254848979652223
95684542 0.0027978463203198285 0.0009753762342082474
95714304 0.0027910500663083995 0.0008373836950720535
95744066 0.002768030770239849 0.0006829969450259043
95773828 0.0027436494828486217 0.0005401648947900012
95803590 0.002722860122611552 0.00038327291150570467
95833352 0.0026844629140455084 0.00022285444353586218
95863114 0.0026174222204248497 7.957741424569242e-05
95892876 0.0025443423728441733 -7.012182327174055e-05
95922638 0.0024699947980396076 -0.00020734508248975705
95952400 0.002385298925970885 -0.0003657298937483982
95982162 0.0022946226692087176 -0.0004975649296878006
96011924 0.0023314790850031365 -0.00042731610002780766
96041686 0.002078459142141516 -0.0008033111069906295
96071448 0.0019739207818604975 -0.0009327746343086531
96101210 0.0018492547756738507 -0.001069369510113901
96130972 0.0020096627498718037 -0.001011750304551013
96160734 0.0016563716941396648 -0.0013525662053458579
96190496 0.0015233333725167676 -0.0014466579568913566
96220258 0.0014378492011736651 -0.0015513288838815867
96250020 0.0012634321407533297 -0.001711396771038078
96279782 0.001136221985121633 -0.0018478256127854233
96309544 0.0010192536061903398 -0.0019622499735598327
96339306 0.0008305929061380393 -0.002091427411017476
96369068 0.0006669501438762519 -0.002184225319054078
96398830 0.0004995695730780319 -0.0022958104426533056
96428592 0.0003058964961358466 -0.0024091029769825445
96458354 0.00010556487398827545 -0.0024986890580297443
96488116 -0.0006773268765546867 -0.0022777297544240094
96517878 -0.0002909652225595723 -0.0026899304864289363
96547640 -0.0005318566421691724 -0.002727964381342716
96577402 -0.0007432966481386767 -0.002770880762669263
96607164 -0.0009714821524123844 -0.0028068071319669093
96636926 -0.001764308603233241 -0.00227905642810357
96666688 -0.001429224631950708 -0.0028783585692810933
96696450 -0.0016339171912623212 -0.002861845688050514
96726212 -0.0018212715650185968 -0.002857271836827618
96755974 -0.001375201200958116 -0.003454212711798803
96785736 -0.0021992329701969416 -0.002766993651564724
96815498 -0.0017823708805592363 -0.0034414265712340067
96845260 -0.002545829913283491 -0.002654522801412028
96875022 -0.002714972780288984 -0.0026028496815002026
96904784 -0.002869580726575465 -0.002542726235014496
96934546 -0.003054259502410402 -0.0023975049616945477
96964308 -0.0031844096704477997 -0.002414639696399537
96994070 -0.003355902637074511 -0.0023517754624488556
97023832 -0.0036941480969902075 -0.0012922172425500302
97053594 -0.0036593271784907747 -0.002233326767162352
97083356 -0.003803459149126705 -0.002195117688802562
97113118 -0.0036389867092838355 -0.003170326603625671
97142880 -0.004085909502396135 -0.0020272739527282422
97172642 -0.00422491235647089 -0.0009035559642359537
97202404 -0.004335809520636065 -0.0018938506109272332
97232166 -0.004451976320836867 -0.0017877994068981513
97261928 -0.004595305856614702 -0.0017041624627922836
97291690 -0.004721546146540244 -0.001505568578574205
97321452 -0.0048415895986992094 -0.0013998178095324578
97351214 -0.004936225091095171 -0.0012497423555454332
97380976 -0.00505848737291336 -0.0011740820079586287
97410738 -0.005138748006406919 -0.0009500850043306815
97440500 -0.005241307749231227 -0.0008508490167736072
97470262 -0.004975570232973792 0.00031232471559628313
97500024 -0.005404205928494181 -0.0005850782781972147
97529786 -0.005511662117404236 -0.00048244623727769183
97559548 -0.005137444083459196 0.0006765827172727405
97589310 -0.005654812968476169 -0.00018598207534509988
97619072 -0.005674547972781216 6.420090697651932e-05
97648834 -0.005811685109451684 4.60786821174525e-05
97678596 -0.005854481955690691 0.0002089898948152457
97708358 -0.005331317307953833 0.0012856597302040543
97738120 -0.005949148597956342 0.0004768041453907531
97767882 -0.005999646511775514 0.0006120076856116402
97797644 -0.006590762870908911 -0.00026713370478940497
97827406 -0.00598384664604578 0.0009326160660845027
97857168 -0.005899478235595143 0.001147213085762711
97886930 -0.005845926917660417 0.0013250795157083667
97916692 -0.0064445770834071076 0.0006164783845175947
97946454 -0.00572199922821787 0.0016495182929197715
97976216 -0.00631366721788524 0.0010038593409584132
98005978 -0.004896591309653228 0.0025864299716861776
98035740 -0.005500559237541083 0.002083775142153031
98065502 -0.005521261219489226 0.002148797422199698
98095264 -0.005591148789263734 0.0021800350700421213
98125026 -0.005639592874252187 0.0022503121609645667
98154788 -0.005000703843038674 0.002885692893727116
98184550 -0.00580399835494848 0.0023034040717915764
98214312 -0.005883004888095681 0.002339777968361374
98244074 -0.005206245616128127 0.00298099750522894
98273836 -0.0060945106624101355 0.0023491863452782527
98303598 -0.006142149575532689 0.0023920320775380264
98333360 -0.006214916500497012 0.002407819411834802
98363122 -0.006229275620196594 0.002410715559442249
98392884 -0.006149889887478296 0.0024985185185105187
98422646 -0.006165885282067684 0.0024924358789302848
98452408 -0.006136882367629573 0.0025227280787631936
98482170 -0.006057634604053624 0.0025890510224706956
98511932 -0.0060704045773794625 0.002597978197924829
98541694 -0.005213857851174376 0.0032155768307485645
98571456 -0.005960865803539796 0.002686078875114042
98601218 -0.006700792158203591 0.002080180385045189
98630980 -0.005885061303674154 0.002792158427382809
98660742 -0.005838698362126462 0.002877321697013885
98690504 -0.0050046187119732735 0.003464616012198456
98720266 -0.006531969811029378 0.002510601160201763
98750028 -0.005700746358172046 0.00315887128340162
98779790 -0.005640981167757885 0.0032381435004143733
98809552 -0.005641389221881701 0.003298814480438289
98839314 -0.005542439376424095 0.0034108117117953433
98869076 -0.005541167447006456 0.0034651165504858508
98898838 -0.006251390291606316 0.0030892122900867216
98928600 -0.005452350454424983 0.003598822060229785
98958362 -0.006256917359494442 0.003193277014736046
98988124 -0.0055197908796726265 0.0036470490395347673
99017886 -0.005465304935107271 0.0037139607777252615
99047648 -0.0055186435614523735 0.003706493060164172
99077410 -0.005481937815960259 0.003764140493989508
99107172 -0.005482874196499927 0.003808530685760119
99136934 -0.005549174379474387 0.00381066116148494
99166696 -0.0055604012727784955 0.0038484366430671427
99196458 -0.005480539059540697 0.0038810178979530336
99226220 -0.005506840622933854 0.003864991907792432
99255982 -0.005507213327691638 0.0038275522692028446
99285744 -0.005368748365981228 0.0038756752901568776
99315506 -0.0054957865525992605 0.0038239915620650634
99345268 -0.005488270790300798 0.003814324195491077
99375030 -0.00548131324083591 0.003836918939312627
99404792 -0.00549313296229073 0.0038076058853268612
99434554 -0.005441720238247206 0.003821487465920894
99464316 -0.005320256063235534 0.003903117941025966
99494078 -0.005300812553611809 0.003964343228715199
99523840 -0.005147877134179697 0.004076205752410145
99553602 -0.005057669849835952 0.004162694320401456
99583364 -0.005668992245015329 0.003952813702645621
99613126 -0.004155031754663075 0.004589788851839065
99642888 -0.004781077504837569 0.004408296016644206
99672650 -0.004693526995011712 0.004480829918295883
99702412 -0.005208121314452355 0.004311652554070196
99732174 -0.0046490198517913205 0.004574617134601657
99761936 -0.004416423477849942 0.004628515825645662
99791698 -0.0046929153616958805 0.0045229793065719075
99821460 -0.00467842169221613 0.0045086786114655
99851222 -0.004777469370988002 0.00446548042806963
99880984 -0.0054183185765511515 0.00421312119497183
99910746 -0.004782408651155014 0.004432531427020935
99940508 -0.005497245164432883 0.004155822756830768
99970270 -0.0048832772638356765 0.00437348364063591
100000032 -0.004851682405020214 0.004365149067559436
100029794 -0.00483723128873217 0.004375241368162122
100059556 -0.0048103226380854505 0.0043963651141578
100089318 -0.004789306485176915 0.004417894429598621
100119080 -0.004773908734200312 0.004446555887432393
100148842 -0.0047496452042261415 0.004466408875054317
100178604 -0.004764100160009244 0.004486611179469424
100208366 -0.004742147537855866 0.004509128451727451
100238128 -0.004726491663663545 0.0045227001704864905
100267890 -0.004706773771064579 0.004545129260501007
100297652 -0.004693951860672334 0.004561821562337763
100327414 -0.0046919727780999785 0.004571317724678335
100357176 -0.0046832797073437385 0.0045826650019384334
100386938 -0.004688032758384754 0.004592257473980588
100416700 -0.004682738307477044 0.004609553245221423
100446462 -0.004676796889401791 0.0046238879736525285
100476224 -0.0046823391079353445 0.004633420391954228
100505986 -0.004678613586593679 0.004644421890937439
100535748 -0.004677620503873638 0.0046562014950286565
100565510 -0.004685086951007189 0.004674836101438689
100595272 -0.004735333970706472 0.004714861497960773
100625034 -0.004780214960355037 0.004753497457747149
100654796 -0.004835965270707496 0.004799280244985322
100684558 -0.004878143491536934 0.0048398529840818225
100714320 -0.004927292716376852 0.004876821246752226
100744082 -0.004986210300943717 0.004918772224002679
100773844 -0.00504258471461531 0.004959674254677967
100803606 -0.005097658958247271 0.005002498799891251
100833368 -0.005151262167344481 0.005043958891987434
100863130 -0.0050944682915001465 0.005043142379982661
100892892 -0.005032986123312389 0.005052478111047156
100922654 -0.004980055406130754 0.005047882341325266
100952416 -0.004919624796624984 0.005050666575777743
100982178 -0.004865056999915282 0.005053640290454369
101011940 -0.004812325742268497 0.005056110154713662
101041702 -0.004761428459155846 0.0050536206606094395
101071464 -0.004700375789901625 0.005055342433980269
101101226 -0.004654421843883282 0.005053917061791216
101130988 -0.004633969233252161 0.0050556614785519614
101160750 -0.004633008337319586 0.0050522874934979265
101190512 -0.004635651557736114 0.005052768566141659
101220274 -0.004638645909456925 0.0050536912439559534
101250036 -0.004631832290337188 0.005054481286683364
101279798 -0.004634201889661498 0.005052512064031607
101309560 -0.0046369815703174826 0.005048274547220786
101339322 -0.004634726671550065 0.005049246864296541
101369084 -0.004636217160910485 0.005054209284535919
101398846 -0.004614680768985044 0.005077386911631137
101428608 -0.004562939561934165 0.005146820297110416
101458370 -0.004503190061707416 0.005214252608576587
101488132 -0.004440145750100234 0.005285013213151936
101517894 -0.004380870087255666 0.005357728678894875
101547656 -0.0043186575926081675 0.005418831080711657
101577418 -0.004250491217969799 0.005488411035904903
101607180 -0.004184509166175017 0.005550421517322824
101636942 -0.004120247779447236 0.005617425909120989
101666704 -0.004046899374563603 0.0056771450443898865
101696466 -0.0041364006320847345 0.005628011440913893
101726228 -0.004223193652793087 0.00557347142149278
101755990 -0.00430936216716034 0.0055197918250359905
101785752 -0.004398319941306015 0.0054592908816600335
101815514 -0.004476044266881566 0.0053941022220408376
101845276 -0.004554809531005105 0.005327386122120531
101875038 -0.004633590036445614 0.005260823980911246
101904800 -0.004707331729402834 0.0051839156966182265
101934562 -0.004777656120312173 0.00511055273870708
101964324 -0.004744195336745377 0.005131836613496555
101994086 -0.004661010574619294 0.005191040292559916
102023848 -0.004574769037892786 0.005244842105138814
102053610 -0.004486563291181574 0.005297140680121282
102083372 -0.004397401717592938 0.00535081151508776
102113134 -0.004312935606625905 0.005398286351641791
102142896 -0.004254238923387665 0.005442833252592165
102172658 -0.00413490371591164 0.005483415509707577
102202420 -0.0040433306901681764 0.005530202242125309
102232182 -0.003950383523424044 0.00555657478054048
102261944 -0.004065298866266385 0.005590022328180041
102291706 -0.004236584029704644 0.005629453484477616
102321468 -0.00427066749322606 0.005640780617200631
102351230 -0.004366095742369468 0.005661919634846495
102380992 -0.004459402651225011 0.005682623839186505
102410754 -0.0045222833415405105 0.005703203088386004
102440516 -0.004536808552118152 0.005713370227864382
102470278 -0.004755369487174056 0.005725420454469331
102500040 -0.004864282998694055 0.0057430771924703175
102529802 -0.004806507537718096 0.005769412208144806
102559564 -0.004747851022597675 0.0057916983668227775
102589326 -0.004687228088054311 0.005811411852311853
102619088 -0.004629533616136909 0.005840510060973827
102648850 -0.004573735150688966 0.005851917365744212
102678612 -0.004514234982651146 0.005882292719588497
102708374 -0.004453074551475704 0.0059004142533577485
102738136 -0.004396403494000536 0.005921416761450661
102767898 -0.004338396146298606 0.005937604644624774
102797660 -0.004305822677347461 0.0059247568022483205
102827422 -0.004294558723734413 0.005896411734243606
102857184 -0.004277977558441984 0.00586842523054821
102886946 -0.004262398779945854 0.005846288281911475
102916708 -0.004244781287729237 0.005816550867420268
102946470 -0.004224529728349226 0.0057946638651285385
102976232 -0.0042097772170351135 0.005767832146851804
103005994 -0.004191429823420828 0.005743469356592808
103035756 -0.004173030705725787 0.005716445629242638
103065518 -0.004164069526752746 0.005710850994929599
103095280 -0.0041674046273105034 0.005738634006752532
103125042 -0.004168672535008034 0.005766112578380354
103154804 -0.004172195920798875 0.005797130273717897
103184566 -0.004165185308707992 0.0058236121458130705
103214328 -0.0041710939553674525 0.00585649098350672
103244090 -0.004168143867322757 0.005884389398415657
103273852 -0.004174643002019807 0.005915891112973805
103303614 -0.004173565761671591 0.005943866524349589
103333376 -0.004173364868302012 0.005972723745773901
103363138 -0.004080106601799478 0.005972389973149637
103392900 -0.0039928371902869285 0.0059722283659398015
103422662 -0.0038990589650415557 0.005969655722709841
103452424 -0.003810837642068028 0.005970276105471664
103482186 -0.0037217900871863 0.005964371132816498
103511948 -0.003633349976132802 0.005960485705632014
103541710 -0.0035469441510357076 0.005953158341287646
103571472 -0.003461987695599583 0.0059443619812550195
103601234 -0.003375645201606917 0.005930170234931518
103630996 -0.0033829425021852932 0.00592945143994698
103660758 -0.0034240693954574746 0.005924382046194171
103690520 -0.0034703013950766093 0.0059179625715921995
103720282 -0.0035157048723865277 0.0059118012775565745
103750044 -0.0035597822053531603 0.005901620923460104
103779806 -0.0036039859784606815 0.005894286171687594
103809568 -0.003653071912274547 0.005888535470259039
103839330 -0.0036980926001931097 0.005871589072418688
103869092 -0.0037422254800784606 0.005860546967370597
103898854 -0.0037866293587781267 0.005860077564834719
103928616 -0.0038216949205305884 0.005883276633676558
103958378 -0.0038599656499722895 0.005909978994824651
103988140 -0.0038981795474804996 0.005928205471635305
104017902 -0.003940429583179039 0.005949607204099054
104047664 -0.003976528291077634 0.005976355514670803
104077426 -0.004018866031511829 0.0059951236170856185
104107188 -0.004063820535176805 0.0060187702616006636
104136950 -0.0041067566026106745 0.00603994138994823
104166712 -0.0041507320564747804 0.006064970630838042
104196474 -0.0041379862886176295 0.006105985797904161
104226236 -0.004118369052661745 0.006155878828429151
104255998 -0.0041115573612861495 0.00619959982117577
104285760 -0.004095778486785636 0.006243959306051653
104315522 -0.004075736576609494 0.00629282858734815
104345284 -0.004062143117003114 0.006337643369556373
104375046 -0.004049651012868549 0.0063844306988844815
104404808 -0.004034039960097852 0.006429505104639143
104434570 -0.004016995917338619 0.006479340894240282
104464332 -0.004000564746848377 0.00645556242498744
104494094 -0.003993982951592629 0.00639944139680044
104523856 -0.003983377164862499 0.006341706943015183
104553618 -0.003971106306778406 0.006288305220253597
104583380 -0.003959989399325125 0.006226103066574687
104613142 -0.003947449147731502 0.00617085028905307
104642904 -0.003931695172375732 0.006114637657033373
104672666 -0.003922998333973579 0.006063365949209869
104702428 -0.003905940864201819 0.006007611650638214
104732190 -0.0038967375151766626 0.005996982942088535
104761952 -0.0038717904629275617 0.0060675939581515525
104791714 -0.0038528453330380747 0.006143321831489207
104821476 -0.003831799934413126 0.006218007291491074
104851238 -0.003807670453414383 0.006290097301334433
104881000 -0.0037834126707203476 0.006367091053627091
104910762 -0.0037639634236212465 0.006441705558599794
104940524 -0.00373177860244071 0.0065162565001575185
104970286 -0.0037041502089172956 0.006589787228612959
105000048 -0.0036730915326673107 0.006673207528933889
