# HZ S RI R 50
90000000 -0.0008006528556629781 0.005470072997767303
90029762 -0.0007119239235790417 0.00547727034337002
90059524 -0.0009835596018740883 0.005504717121854286
90089286 -0.0007982059719846121 0.005535210389445978
90119048 -0.0009702884168329751 0.005550039894495703
90148810 -0.0008839073000096728 0.005604374846777998
90178572 -0.0008963123820052133 0.005633421664563449
90208334 -0.0008713535198335553 0.005668030110014961
90238096 -0.001133499592999279 0.005690939304781585
90267858 -0.0009819315956188061 0.005730901925700368
90297620 -0.0009735377856426783 0.0057120937587371535
90327382 -0.0008938527280131108 0.005668475283060025
90357144 -0.0009196351569004508 0.005624042016682122
90386906 -0.0008407081697768877 0.0055806293827666414
90416668 -0.0010177778612589206 0.005525428988966898
90446430 -0.0008405975726994302 0.005490759109565409
90476192 -0.0007219624517372271 0.0054315914746509335
90505954 -0.0007416239091092206 0.005408987501786553
90535716 -0.0007643443706691082 0.00536333710716105
90565478 -0.0006898320636361147 0.005345429524304984
90595240 -0.0007010966273405688 0.005356033856517351
90625002 -0.0006622255131950064 0.005368859059246565
90654764 -0.0005785870761575811 0.005383892620621092
90684526 -0.0005410900413274145 0.005395312434077272
90714288 -0.0005491967252627427 0.005409666150655074
90744050 -0.0005120076876878486 0.005422530571012399
90773812 -0.0004272513288384957 0.005434155930419968
90803574 -0.00043491067107153455 0.005445405294035327
90833336 -0.00034986421292350865 0.005456564326587212
90863098 -0.00032509912122292756 0.005431756877216916
90892860 -0.0003451720393902677 0.005409294273481106
90922622 -0.0002783527153207121 0.005385129601322731
90952384 -0.00025345522930261046 0.0053614585954623525
90982146 -0.0002721052234410003 0.005339828404495241
91011908 -0.00020662607225602585 0.005311779539303243
91041670 -0.00022609087014732043 0.005289204674755453
91071432 -0.00020474333022920432 0.0052651638939587644
91101194 -0.00030210587702033265 0.005244097530982658
91130956 -0.00014948777381773421 0.005252863181153281
91160718 -0.00021760706272213373 0.005284090813404498
91190480 -0.00024504737843137047 0.0053149371147213
91220242 -0.000396936635261418 0.005344105529344191
91250004 -0.0003015903399363706 0.005373790010246695
91279766 -0.00045597180335412135 0.005401491740997278
91309528 -0.0003230576335128856 0.005435533693743694
91339290 -0.0003952082058749292 0.005464336819644423
91369052 -0.0003869135217088624 0.0054939917571100415
91398814 -0.0005701798842044692 0.005497694830213228
91428576 -0.00044613748405270134 0.0054784516287951085
91458338 -0.0003991054568016364 0.005456965098715804
91488100 -0.0004325178815830029 0.005428757496010925
91517862 -0.0004284004950134754 0.005404464181501897
91547624 -0.00038374366336767034 0.00538415052618829
91577386 -0.0003787312128292768 0.005358366515051343
91607148 -0.00041073301794912183 0.005331672042568512
91636910 -0.0004059782153638729 0.005305412547339542
91666672 -0.0003608817984922884 0.005285629232914904
91696434 -0.00032565927172445864 0.005297693522626315
91726196 -0.00021357729645481806 0.005311615325477298
91755958 -0.00014051546442275483 0.005320732427635166
91785720 -0.00010102383275254564 0.005328325237970705
91815482 1.3497267441606702e-05 0.005333897901082216
91845244 8.973748647383875e-05 0.005338376737609633
91875006 0.00013065501634253906 0.005343487510945122
91904768 0.0001021660446173829 0.005348810687711905
91934530 0.0002872513635132611 0.005344310217012674
91964292 0.0003162459194579743 0.005357953467193257
91994054 0.00035369433611918266 0.005375228446186673
92023816 0.0002207141465220795 0.005400655424514807
92053578 0.00032804405637331226 0.005419166543422659
92083340 0.00033281960680001246 0.00543967145819802
92113102 0.0003698263616070142 0.0054591299889890435
92142864 0.000340510589173142 0.005480018357319216
92172626 0.00037847127585946354 0.005498812091149417
92202388 0.00024663239764040134 0.005524303473083708
92232150 0.00034644612179330736 0.005519902842313412
92261912 0.00023072456066000485 0.00546841642759857
92291674 0.00034352315190745123 0.005414445631962832
92321436 0.00029612079644291534 0.005362713755373556
92351198 0.00031390434555730754 0.005313005222339662
92380960 0.00027004004994924774 0.005262583676357119
92410722 0.00025707840637571817 0.0052127746537832765
92440484 0.00027459000904218514 0.005164626374289942
92470246 0.0002638577864586193 0.005117235337135235
92500008 0.00022434320804352726 0.005066970589965209
92529770 0.00022719438941243237 0.005081384710204668
92559532 0.0002566307508203927 0.005100225530731799
92589294 0.0002303273052922975 0.00511820490769982
92619056 0.0002586160788098494 0.00513581580393006
92648818 0.0002597808701376003 0.005155025889080535
92678580 0.00023466254324985386 0.0051721408215584935
92708342 0.00026530928256946124 0.005190525584543969
92738104 0.0002655431814161111 0.005208203499452579
92767866 0.0002409841664062425 0.005223822689201172
92797628 0.00028837407581004703 0.00523505135193598
92827390 0.000301619653105896 0.005238905109257196
92857152 0.00033660327858425364 0.005243521508383675
92886914 0.0002972803564434019 0.005241049631264747
92916676 0.00043850605729134877 0.005252673381012944
92946438 0.0004505971753454326 0.0052518885386090165
92976200 0.0004904289666473682 0.005254876377646856
93005962 0.0004547810565885886 0.005251820962319496
93035724 0.0005970724606967985 0.005244076748220231
93065486 0.0005179843203054624 0.005258865959440885
93095248 0.0007330172552779682 0.005233275026569181
93125010 0.0007918924011296196 0.005212368865609832
93154772 0.0008671699613139103 0.0051977363136456595
93184534 0.0008604876856114481 0.0051840638339034845
93214296 0.0010130910446601565 0.00514830300116735
93244058 0.0010753142880231717 0.0051042985383346106
93273820 0.0011771074908775083 0.005090938684260953
93303582 0.0012912013654094259 0.005039913882807219
93333344 0.001425903175717335 0.004990205435171576
93363106 0.0013523437192321458 0.005011422797155753
93392868 0.0012916578064893788 0.0050203343434282385
93422630 0.0012490394465017906 0.005026251096733131
93452392 0.0012327076010864397 0.005025787522662956
93482154 0.0011713889988325473 0.005033069239558354
93511916 0.0011534532478755476 0.005030133923014728
93541678 0.0011105092453971863 0.005028842305519903
93571440 0.001128583291056043 0.005007302106782078
93601202 0.0010343694770194004 0.005021879929281998
93630964 0.0010633422926409758 0.005011725001257125
93660726 0.001108482841584429 0.004990409521666361
93690488 0.0011643782914572737 0.004972413540505787
93720250 0.0012197988892407804 0.004938377264670069
93750012 0.0013064317094699355 0.004915348448743784
93779774 0.001386792671881836 0.004888544853914222
93809536 0.0013820091205305205 0.004863245654746006
93839298 0.0015013396848749317 0.004826297519124069
93869060 0.0015664275845016248 0.0047928172909092745
93898822 0.001639229718406793 0.004761784467453281
93928584 0.001647650686749853 0.004728505578994317
93958346 0.0016908514608330802 0.0046902996157343994
93988108 0.001648288555064451 0.0046642375221343044
94017870 0.001727908790788807 0.004621557880613685
94047632 0.0017059634969095899 0.004588228202704776
94077394 0.0018000852908136183 0.004544541866924161
94107156 0.0018105422038325913 0.0045065054253733755
94136918 0.0018545546708310303 0.004465266104646298
94166680 0.0018649861346811253 0.004427608301229726
94196442 0.001943876449465382 0.0046319675068429295
94226204 0.001980228894275292 0.004866271048398382
94255966 0.00212427050899019 0.00511618905940003
94285728 0.0021975208980140274 0.0054047462626210605
94315490 0.002283095428404155 0.005726123419235858
94345252 0.002382911019683687 0.006093711071718608
94375014 0.0024443113627452954 0.006516860678957547
94404776 0.002525504324768592 0.007002391263235763
94434538 0.002576447596879168 0.007567304885172648
94464300 0.0025976551396589744 0.007271313505818481
94494062 0.0025790446048413397 0.006631269007226562
94523824 0.002579340858772497 0.006055701074111966
94553586 0.002502199300657237 0.0055765662391558226
94583348 0.002492702725970046 0.005133176927043593
94613110 0.0024144884959797198 0.004758410771911244
94642872 0.0023867099966893533 0.004406102822283539
94672634 0.0023343938493442552 0.004101711655373458
94702396 0.0022848272874880695 0.0038224655721989997
94732158 0.0022523760071722263 0.0036188981753007545
94761920 0.002273856608869847 0.00353802299557236
94791682 0.0022682754212453517 0.0034574212750328164
94821444 0.0023073524039882044 0.003365657211409715
94851206 0.002304707260188204 0.003284363283440765
94880968 0.002357620469924756 0.003183741608612384
94910730 0.0023662707798798657 0.0030979729046233303
94940492 0.0023872571310071342 0.0030033548272923624
94970254 0.002379709143887643 0.002921858164717038
95000016 0.002412777862516473 0.0028187668021528505
95029778 0.002418936735475434 0.0027870604175988093
95059540 0.002468459892120007 0.0027305321791631517
95089302 0.0024999515193208175 0.0026769141096239894
95119064 0.002525193075153358 0.002623692474804259
95148826 0.0025306892575674045 0.0025748915703571536
95178588 0.002573545444061099 0.002514078933589365
95208350 0.002600948801442123 0.0024480119575479636
95238112 0.002626854710572654 0.0023765618344652397
95267874 0.0026502485538564455 0.0023148014992943806
95297636 0.002673796301590933 0.002227230884410172
95327398 0.002689891212054812 0.002133806152525161
95357160 0.002711842309951732 0.0020364558633536745
95386922 0.0027255497367080325 0.0019282589225981211
95416684 0.002740733081791898 0.0018208744271155481
95446446 0.002742736844312344 0.001722745035864201
95476208 0.002758989740936088 0.0016123270847725434
95505970 0.0027633008544129217 0.0014963633214254315
95535732 0.0027668053852631298 0.0013805854273574022
95565494 0.002769292862697245 0.001254446043605081
95595256 0.002773345960514421 0.001116310159741138
95625018 0.002763896053349804 0.0009744119611094046
95654780 0.002758377427689799 0.0008305649989325364
95684542 0.002739283338588494 0.0006835766852240597
95714304 0.0027219837653390537 0.0005286079651716089
95744066 0.00270043738265096 0.000380387202285961
95773828 0.00265949381681253 0.00022363838258532463
95803590 0.0026265384766087307 6.82818826361887e-05
95833352 0.0025704235941307074 -8.803262052669536e-05
95863114 0.00248752434366807 -0.00024002420018624383
95892876 0.0024115103527009413 -0.000393680514221044
95922638 0.0023182056778531007 -0.0005291900372674594
95952400 0.0022171319975577623 -0.0006748814274351087
95982162 0.002118763570880867 -0.0008122556867492524
96011924 0.0022450420287635654 -0.0007655271008109062
96041686 0.0019149054120881782 -0.0011359137613134885
96071448 0.0017582301973545378 -0.0012861447909449882
96101210 0.0016468300938703327 -0.0013988001484150487
96130972 0.001871305003285944 -0.0013726885105093383
96160734 0.001407953996463282 -0.0016609470614290225
96190496 0.0012781588547723405 -0.0017990822490076726
96220258 0.00113924954324956 -0.0019255104274790598
96250020 0.001044458958350389 -0.002041389230184814
96279782 0.0008899240921947296 -0.00216342444319708
96309544 0.0006750356620409926 -0.002279024012013836
96339306 0.0005066554984234376 -0.002392483904941044
96369068 0.00033475952526821826 -0.002510312382954457
96398830 0.00013834654199625424 -0.0025860625736331484
96428592 -8.590117682627739e-05 -0.0026437059033913354
96458354 -0.00022983576590694833 -0.002785821260339573
96488116 -0.00110894516224739 -0.0024324875734936797
96517878 -0.0007238210448699093 -0.002893182019156619
96547640 -0.000958725555037728 -0.0029339545003928837
96577402 -0.0011873170165298925 -0.0029858783076557706
96607164 -0.0014340931725579068 -0.0030012896977645166
96636926 -0.002289090993834695 -0.0021270776452805007
96666688 -0.0019122376086922227 -0.0030166039477365772
96696450 -0.0021100577828359816 -0.002966616330870584
96726212 -0.0022905033330682016 -0.002940339338326947
96755974 -0.001857611792259384 -0.003643381188242216
96785736 -0.002660542206697047 -0.0028280582923857715
96815498 -0.0022712101605055013 -0.0036239079920965273
96845260 -0.0030284239015566728 -0.0026951945618862863
96875022 -0.0031798180142399535 -0.002621271090270597
96904784 -0.003327224972257956 -0.0025450857827362533
96934546 -0.003492827197045731 -0.002371532053887899
96964308 -0.003639051098535913 -0.0023642573089645035
96994070 -0.0037865264269875305 -0.0023087642676567887
97023832 -0.0040440421629821316 -0.0011673757765136592
97053594 -0.004086964547346913 -0.0021566838149963273
97083356 -0.0042276970752959595 -0.002108381040504311
97113118 -0.004131752565885776 -0.003158204329603679
97142880 -0.0044994739600484526 -0.0019115670666474324
97172642 -0.004545279541478168 -0.0007318582210368598
97202404 -0.00472428591806351 -0.001776065881676444
97232166 -0.004837653760215524 -0.0016481244618447811
97261928 -0.004960855444829985 -0.001543776673995089
97291690 -0.005076647087809179 -0.001365214456073756
97321452 -0.005196276595326269 -0.0012794871929218726
97351214 -0.005281968693745273 -0.0010856371670105497
97380976 -0.0053962905532610244 -0.0010152054022882738
97410738 -0.005450200232452201 -0.0007662183305206677
97440500 -0.005556495760728836 -0.0007044865300363385
97470262 -0.005174049832617633 0.000551066732887939
97500024 -0.005716334989951244 -0.0004108260202535859
97529786 -0.005786002215747988 -0.00027482323076401184
97559548 -0.005318689088824525 0.0009080098456280914
97589310 -0.005910455284594924 4.3907827620933176e-05
97619072 -0.005909381569153304 0.00028971515247197934
97648834 -0.006041248010210604 0.00028021341174395184
97678596 -0.006067624037547423 0.0004461604967934733
97708358 -0.005474507479715211 0.0015075030760042262
97738120 -0.006165951285244913 0.000721166693749685
97767882 -0.006205619361264987 0.0008454099010891979
97797644 -0.006828291912022564 -1.522478471773671e-05
97827406 -0.006150621487494905 0.001182581231616635
97857168 -0.0060660102317310755 0.0013844136945688596
97886930 -0.005981277245782052 0.0015502672939055008
97916692 -0.006624917388902316 0.0008517136026898442
97946454 -0.005848111003649144 0.0018732341400816584
97976216 -0.006491496186755436 0.001236126034068073
98005978 -0.004970932649095566 0.0027708760243798382
98035740 -0.00560305354889628 0.002289032460736645
98065502 -0.005612720454566702 0.002350397710987945
98095264 -0.005693325001122214 0.0023851626570219686
98125026 -0.0057319159168232004 0.0024584363718470597
98154788 -0.0050591309948705985 0.003068801089651657
98184550 -0.005891757442605489 0.0025188104344896823
98214312 -0.005980601655388175 0.0025445564548630265
98244074 -0.005256577653011469 0.003165315657000586
98273836 -0.006185845205907245 0.0025645995058401383
98303598 -0.006235666660719727 0.002617353025190806
98333360 -0.006309006182327817 0.002640873977438138
98363122 -0.006317535062079701 0.002636525156822643
98392884 -0.006249291361690729 0.0027080606828539275
98422646 -0.006250081332628298 0.00271045199347646
98452408 -0.006216603835945756 0.002747321581816201
98482170 -0.006137200672392818 0.0028085092128994848
98511932 -0.006146144361024398 0.0028011193522085747
98541694 -0.0052556651907408256 0.0033932217178798685
98571456 -0.006029006629048361 0.0028855664381729805
98601218 -0.006815031436494503 0.0023067723060635425
98630980 -0.005952181882141914 0.002981433286759252
98660742 -0.005904899490309713 0.0030727368602458346
98690504 -0.005038835080773163 0.003643685589067495
98720266 -0.006608540344964464 0.0027387925536043727
98750028 -0.00574385930639297 0.003345537562784579
98779790 -0.005685529403920501 0.003431612878421872
98809552 -0.00567336048583948 0.0034859532947764237
98839314 -0.005573146503940553 0.0035964270306907383
98869076 -0.005571621676579079 0.0036540991126116475
98898838 -0.0062932523421262215 0.003310977002203188
98928600 -0.005483155701241809 0.0037858155896341675
98958362 -0.0063011993884439736 0.00341286858902211
98988124 -0.005549411261304316 0.0038371328721945107
99017886 -0.005499822953680715 0.003918945204509481
99047648 -0.0055431864979786855 0.003920778423163387
99077410 -0.005488409042732647 0.00396968474188303
99107172 -0.005499954935572025 0.004018985457582682
99136934 -0.005561164369667296 0.00402805240521512
99166696 -0.005567362186867767 0.004066667208736442
99196458 -0.005490098215138917 0.004079429181874785
99226220 -0.005480713175361159 0.0040778185417245875
99255982 -0.005523929933103283 0.004050335862445053
99285744 -0.005413672436609477 0.004079897098393739
99315506 -0.005499186236205716 0.004041157172406678
99345268 -0.005479363734754264 0.0040402128436259665
99375030 -0.005343526166479587 0.004058344393328801
99404792 -0.005450386105633736 0.004025313026088715
99434554 -0.005445889187381209 0.00401725758212756
99464316 -0.005390534594456903 0.004099790575414624
99494078 -0.005288708287750846 0.004164076798840384
99523840 -0.005135183109385492 0.004272002755259214
99553602 -0.005045804800443826 0.0043562958624291355
99583364 -0.005654700577134484 0.004159217666787014
99613126 -0.004098268068856003 0.0047476607336302545
99642888 -0.004752523877988095 0.004585167996902922
99672650 -0.004671605161889508 0.004652814402370113
99702412 -0.005241382540421065 0.004491632725581658
99732174 -0.004675969412388505 0.00474936330049113
99761936 -0.004376743797612206 0.004783362154341336
99791698 -0.004656977608201402 0.004689890548820882
99821460 -0.004633573042631692 0.004680861407110074
99851222 -0.004727337348239942 0.004642996577018347
99880984 -0.00537911398886851 0.004410299442359026
99910746 -0.004733548278445647 0.004606806764892943
99940508 -0.00545067427951477 0.004352055700856276
99970270 -0.004794928587656003 0.004547998571638121
100000032 -0.004833138771213287 0.004528945586925411
100029794 -0.004804829096279841 0.004541752340994518
100059556 -0.004784904383216884 0.0045686302543370295
100089318 -0.004762145760288256 0.004587679612338297
100119080 -0.004737385723801838 0.004605235005874627
100148842 -0.004715230801486786 0.00462719627363787
100178604 -0.004691341885948794 0.00464554036806437
100208366 -0.004667918135897403 0.004660623070435364
100238128 -0.0046467494717858 0.004678894073215319
100267890 -0.004625775987507406 0.004698179608587023
100297652 -0.004613480424614413 0.004710858633064039
100327414 -0.0046088758429206995 0.004723592161577367
100357176 -0.004605932149512362 0.004733432354211247
100386938 -0.0046027077042418 0.004743265940976158
100416700 -0.004597847921626702 0.004756981584348949
100446462 -0.0045919633182229325 0.004764014740644691
100476224 -0.004596292011441993 0.0047740457946661
100505986 -0.004586286237534246 0.004780089943398621
100535748 -0.004579579029200252 0.004792076186097102
100565510 -0.004598468434990212 0.004807064225697647
100595272 -0.004641381008026058 0.004846180005879449
100625034 -0.004684924497985136 0.004886253603286033
100654796 -0.004727911728553347 0.00492596054775554
100684558 -0.00477443475403791 0.004971115023721178
100714320 -0.004828244639457664 0.0050101553994555004
100744082 -0.004877000730597177 0.0050492302601772
100773844 -0.004929813939391693 0.005082949404480814
100803606 -0.004982300620686344 0.005128053004975067
100833368 -0.005036395061747204 0.005165697721924678
100863130 -0.004980991722385813 0.005164945748411526
100892892 -0.004921168587027374 0.005164599967193419
100922654 -0.004862459023139286 0.005165817823056071
100952416 -0.004807573387701838 0.0051602384728916435
100982178 -0.004748868291499117 0.005158394299309789
101011940 -0.004693065394896782 0.005154327736795433
101041702 -0.004638333266081633 0.005151433009212112
101071464 -0.004579570857984376 0.005152545310621349
101101226 -0.004528289086182416 0.005147069396639255
101130988 -0.004512415739900445 0.005136457794289288
101160750 -0.004509107804406793 0.00514045883267488
101190512 -0.00451849170246635 0.0051379870027803
101220274 -0.004515433053016683 0.005132930573170482
101250036 -0.0045110737174864956 0.005130694755382643
101279798 -0.004517125540829148 0.005124285440633011
101309560 -0.004515655956383717 0.005123372079149555
101339322 -0.004515431149755257 0.005117479854665466
101369084 -0.004519431618395478 0.00511513457029688
101398846 -0.004491043208754714 0.005133335923419709
101428608 -0.004431194672025267 0.005201160665686429
101458370 -0.00437940834514043 0.0052664431472831345
101488132 -0.004317990648521568 0.005332980638612906
101517894 -0.004253961807400362 0.0053959782557841144
101547656 -0.004195953003725393 0.0054556733919499025
101577418 -0.004126641897641284 0.005522798298363284
101607180 -0.004067342868470022 0.005589673251729536
101636942 -0.003998939821143511 0.005644391919621301
101666704 -0.003924874440083865 0.0056999741066951
101696466 -0.004012505804259218 0.005656719114883862
101726228 -0.00410345931034953 0.005602084330578154
101755990 -0.004191833849559035 0.005542920155736587
101785752 -0.004277647966787132 0.005484975203072875
101815514 -0.00436067159990972 0.0054190924444263095
101845276 -0.004436918974863506 0.005356700349356835
101875038 -0.004520660746649679 0.005280642275723237
101904800 -0.004600370439138346 0.005213554509623199
101934562 -0.004668664324350797 0.005139194542534713
101964324 -0.004639828506338509 0.005149225132360076
101994086 -0.00455495821080854 0.005202956198184086
102023848 -0.004503167419459799 0.005257597955289011
102053610 -0.004392100255628257 0.005307715141012744
102083372 -0.0043006298116896385 0.005359706378581008
102113134 -0.004213557356645655 0.005403814456886455
102142896 -0.004130241159894279 0.0054522512892056394
102172658 -0.004122422798498485 0.00551719026516418
102202420 -0.003948804565848237 0.00553120807161835
102232182 -0.003919050093775223 0.0055594572778755414
102261944 -0.003949284491506217 0.005577461651194679
102291706 -0.004093248991979443 0.005610757693413608
102321468 -0.004185195507081824 0.005634720232822405
102351230 -0.004215563334951145 0.005646850266729129
102380992 -0.004373545752411477 0.005679505238813419
102410754 -0.004469837306884941 0.005692423149677766
102440516 -0.004539442873692854 0.005712460307863704
102470278 -0.004702469897313237 0.00572684075597924
102500040 -0.0047768796372014 0.005733992004741929
102529802 -0.004725712786576117 0.005761084303731774
102559564 -0.004662297299948905 0.0057836056501390795
102589326 -0.0046073598722745435 0.00580273327377252
102619088 -0.004585265276922079 0.005823023049555317
102648850 -0.004491931815578286 0.0058397619592773795
102678612 -0.004498311716498714 0.005870399299690011
102708374 -0.004377797688622335 0.005881288303028389
102738136 -0.0043248219527287 0.005897714816762567
102767898 -0.004273885647651209 0.005914168509000804
102797660 -0.0042437941393109035 0.005903192129383862
102827422 -0.0042243029522765286 0.0058777016970803465
102857184 -0.004208917852691094 0.005850786677438781
102886946 -0.004195085464900108 0.005826033724302368
102916708 -0.004179148583639428 0.00579786419167583
102946470 -0.004159365055010048 0.005771605546533238
102976232 -0.004151824666228302 0.0057470876496272865
103005994 -0.004134069589708942 0.005719103325084532
103035756 -0.004122505829857499 0.005694688265189241
103065518 -0.00411200718185221 0.005684924191553178
103095280 -0.004108950517981561 0.00571367032794363
103125042 -0.004112737609367854 0.005742937930249673
103154804 -0.004116224830885406 0.005772023481005771
103184566 -0.004118467045051983 0.005802818782699756
103214328 -0.004117688580922415 0.0058306302577701445
103244090 -0.004122848793340797 0.005863076478304936
103273852 -0.004123299266225271 0.005890557252984224
103303614 -0.004124417359734241 0.005919287545572692
103333376 -0.004129243524031703 0.005946976026120988
103363138 -0.004036056029096012 0.005948452232883916
103392900 -0.003945770732393828 0.005951165026590437
103422662 -0.003857952252929998 0.005946451899706131
103452424 -0.003769198599998131 0.005942992434301941
103482186 -0.0036799146665778474 0.005937571710167155
103511948 -0.003598419491453971 0.005932680625496259
103541710 -0.003507983250337785 0.005922390778694358
103571472 -0.0034304714180143827 0.005920324867409151
103601234 -0.003348199876488351 0.005906125197741274
103630996 -0.0033474556307667787 0.0059016467049832644
103660758 -0.003395126785286037 0.005894814066751844
103690520 -0.0034425657632813594 0.005888972711455754
103720282 -0.0034828274480440714 0.005881688664565781
103750044 -0.0035310690320145477 0.0058759260129501376
103779806 -0.003578893074907457 0.005867801162364776
103809568 -0.003619213499705607 0.005854471199862814
103839330 -0.0036716724904590045 0.00584784489741154
103869092 -0.0037161864474589733 0.005832406689098658
103898854 -0.003752602700602073 0.005836190521901063
103928616 -0.00379486335187655 0.005855787676198139
103958378 -0.003838355001708081 0.005881435491198706
103988140 -0.00387970987423225 0.0059035876297143
104017902 -0.003912064653681599 0.005927544827583122
104047664 -0.003957926760805714 0.005948367975809729
104077426 -0.003970041535236222 0.005968099056945346
104107188 -0.004038613482781849 0.0059934044958296195
104136950 -0.004085250434332381 0.006017826031087329
104166712 -0.0041291897687654264 0.0060403578563044905
104196474 -0.004118241412447386 0.00608227848115676
104226236 -0.004097219232862552 0.006131375032088358
104255998 -0.004086500905184239 0.006176091962712959
104285760 -0.004069034835819515 0.006223779537880899
104315522 -0.004063635046191072 0.006270305098259749
104345284 -0.004046730376853109 0.006317303088392547
104375046 -0.004029777464367261 0.006362674457924903
104404808 -0.004013771288256737 0.006407407172019904
104434570 -0.004005092775688501 0.006460309942799914
104464332 -0.003986255205812474 0.006436449187218027
104494094 -0.003974940361351813 0.0063826875572353964
104523856 -0.003963891648129877 0.006321724751591316
104553618 -0.0039551097655058905 0.006263222058387478
104583380 -0.003945428353698692 0.006206213445536364
104613142 -0.003931082929105628 0.006154843587113766
104642904 -0.00391545625638072 0.006102463092986278
104672666 -0.00390628212091042 0.006046570687630069
104702428 -0.0038940401771757074 0.005989590824493151
104732190 -0.0038751087287735328 0.005980723396116812
104761952 -0.003861356244857867 0.006052027190753691
104791714 -0.003839413619665619 0.006122964549101651
104821476 -0.0038164284801505154 0.006199154869327853
104851238 -0.003794924064860735 0.006272723121705221
104881000 -0.0037753040777100126 0.006348697342524438
104910762 -0.0037503751874875743 0.0064254351963768715
104940524 -0.0037238657555908427 0.006500750122515871
104970286 -0.0036989325905112842 0.006576042591597319
105000048 -0.0036744304108235286 0.0066543311893448275
