# HZ S RI R 50
90000000 -0.0007222268836070436 0.005433977608197319
90029762 -0.0006936314333446824 0.005467313273711111
90059524 -0.0009337088970782249 0.005489574047630012
90089286 -0.0007957170159030172 0.005530257501476615
90119048 -0.0009846116165504592 0.005554039119100081
90148810 -0.0008501908946447028 0.005498721711318863
90178572 -0.000926000297125796 0.0056363828751334185
90208334 -0.0008662413448884629 0.005664585503565535
90238096 -0.0010943465481393743 0.005678891672262922
90267858 -0.0009776106851021617 0.0057258498674860134
90297620 -0.000952707807198575 0.005702443398366678
90327382 -0.0008553100157627545 0.005661037103731817
90357144 -0.0008986868234634782 0.0056110181874402965
90386906 -0.0008215328880714096 0.005571577357034319
90416668 -0.0009968875324322 0.0055161795081068755
90446430 -0.0008192026944360681 0.005482861663849451
90476192 -0.0007457476091275961 0.005441136630142622
90505954 -0.0007215526482900636 0.005401776479451829
90535716 -0.0007428143638598618 0.0053546026017708475
90565478 -0.0006676498591251258 0.005336183773618439
90595240 -0.000676676152115573 0.0053498304231332896
90625002 -0.0006413453185070467 0.005361072327984095
90654764 -0.0005555829777006495 0.005373630296326529
90684526 -0.0005193462084867349 0.005389170749014396
90714288 -0.0005286554392244202 0.0053993240499158445
90744050 -0.000490088667246968 0.005410737041525165
90773812 -0.00040428352410443343 0.005423381492934416
90803574 -0.000409377055155147 0.005434081615741473
90833336 -0.00032689459681218777 0.005447313353537546
90863098 -0.0003001405599517821 0.0054215790283108686
90892860 -0.0003187767697404589 0.005399490584384514
90922622 -0.0002555683011870776 0.005372627356151333
90952384 -0.00022981291469726254 0.0053475560760517845
90982146 -0.0002508374881534974 0.005325780065450808
91011908 -0.000184894091178865 0.005303820568388901
91041670 -0.0002025902000728938 0.005276373256671471
91071432 -0.00017933636408592465 0.00525345916479203
91101194 -0.00028057171847787265 0.005228637254995705
91130956 -0.00012474082432960873 0.005243543752927912
91160718 -0.0001915674254993108 0.005268843462011401
91190480 -0.0002180873605044429 0.005302934619039231
91220242 -0.0003695435036640635 0.005331575513286783
91250004 -0.00027607310025274203 0.005361933463962459
91279766 -0.00042814079892317434 0.005387932124657817
91309528 -0.0002947353707957429 0.00542298905835577
91339290 -0.00036748306677672016 0.0054496163230828235
91369052 -0.00036050805527392416 0.005480154333383511
91398814 -0.0005400765781946104 0.005484688198500964
91428576 -0.00041386308196825824 0.005464161990263481
91458338 -0.00037067226351875717 0.005443089407236071
91488100 -0.0004026650752014218 0.005416111396988784
91517862 -0.0003961715890539858 0.005388423585203127
91547624 -0.0003550616259143141 0.00536753690709577
91577386 -0.00034625717613803606 0.005342204658888689
91607148 -0.00037875883048248284 0.005313606178983881
91636910 -0.00037258531118199585 0.005291906748587874
91666672 -0.0003309360958667095 0.005267076760510893
91696434 -0.0002924970845509267 0.005281374100554908
91726196 -0.00018113401241910134 0.005292957354676681
91755958 -0.00010842634083268644 0.005304032207050142
91785720 -6.757116701937139e-05 0.005308612483787059
91815482 4.234743287537256e-05 0.005315277505143747
91845244 0.00012104465687808674 0.005319360173042952
91875006 0.00016212359126947462 0.00532144002272097
91904768 0.00013636234437806245 0.005325275833135555
91934530 0.0003206645808072012 0.005321349146135533
91964292 0.00034744549970676153 0.005334856248465096
91994054 0.00038925255255225724 0.005352959980884067
92023816 0.0002549270597547361 0.005379282763192968
92053578 0.0003619996227925585 0.00539531096887525
92083340 0.00036783678916877023 0.0054160449313831365
92113102 0.00040535502550564635 0.005434149743130587
92142864 0.0003778523552078199 0.005452923375679286
92172626 0.00041449764496498853 0.005476714132457446
92202388 0.0002870201702531731 0.005494851652085674
92232150 0.0003851647429124756 0.005492356168630579
92261912 0.00027020419957549916 0.00544172519101339
92291674 0.0003837762002030483 0.005387569168780079
92321436 0.00033702121020591307 0.005336863999494343
92351198 0.00035208193899142023 0.0052858029577828505
92380960 0.0003093879811743824 0.005234634948806301
92410722 0.0002977363516601388 0.005186468950833212
92440484 0.0003155154373755705 0.005136347444283535
92470246 0.0003046635696256708 0.005084673285603514
92500008 0.00026538408891845156 0.005038842348175354
92529770 0.0002680388530912805 0.005055821272432941
92559532 0.0003001862722326448 0.005070837583344073
92589294 0.00027273220044681624 0.005086852810197219
92619056 0.00030090901293908896 0.0051082330349808075
92648818 0.00030684992446651245 0.005126024991615188
92678580 0.00027999309392603023 0.005140169459201212
92708342 0.0003113100544006424 0.005160259801265624
92738104 0.00031093267084583346 0.0051749588077981525
92767866 0.0002896083174997049 0.0051918112938373895
92797628 0.0003389905753925662 0.0052041109803221235
92827390 0.00035118374359877785 0.0052043029914902415
92857152 0.00038808361793681045 0.0052063586609266245
92886914 0.0003469735437846979 0.00520489672738672
92916676 0.0004896263796975261 0.005211681784859962
92946438 0.0005023864957479429 0.005214461655282799
92976200 0.000523912104320313 0.005211740624574287
93005962 0.00050891224134342 0.005210358853515614
93035724 0.0006222279964229501 0.0052128507256419
93065486 0.0006043259222609054 0.0052047159243202535
93095248 0.0007701322072827969 0.005188625434796558
93125010 0.0008485793482561114 0.005164155540715646
93154772 0.0009549344040702791 0.005139090146567988
93184534 0.0009435841783336764 0.005114587070417436
93214296 0.0010998987056912248 0.00508282263295778
93244058 0.001172832396896482 0.005034404944364459
93273820 0.0013252270218928421 0.004992721658791272
93303582 0.0013762336934458493 0.004971522183923338
93333344 0.00144576800678566 0.004945390447269376
93363106 0.001441271750612638 0.004941880768704962
93392868 0.0013795502408587667 0.004945827627752399
93422630 0.0013112629955397547 0.004964189130405159
93452392 0.0012920820674509593 0.0049634925318191156
93482154 0.0012348910576424662 0.004966078574415615
93511916 0.0012171544022219585 0.004969542893309973
93541678 0.001175573978138749 0.004965993282840481
93571440 0.0011202119682230261 0.004961657168733843
93601202 0.0011013700044806983 0.0049579370329358935
93630964 0.0011320821735092573 0.004943673677501623
93660726 0.001144940548685823 0.004929901885488514
93690488 0.0012628146417416769 0.004893761281156586
93720250 0.0013085755428804812 0.004867746413924247
93750012 0.0013737325929351139 0.0048387249972256085
93779774 0.0015000147433294553 0.004786768921601546
93809536 0.0014537056888736521 0.004782408093653851
93839298 0.0015722148946720675 0.004746041668585756
93869060 0.001637382779728016 0.004713455902944664
93898822 0.0017077506759519288 0.0046747533363526465
93928584 0.0017169665567660598 0.004640922427872851
93958346 0.0017634589246179483 0.004599524430599527
93988108 0.0017205592329250512 0.004568143465716252
94017870 0.0017998209432281492 0.0045227015670094035
94047632 0.0017813017007237576 0.004488791696001959
94077394 0.001873601814574312 0.004440501108557906
94107156 0.0018824223504880356 0.004402806188819546
94136918 0.0019262688917843296 0.00435683975651793
94166680 0.0019429015418598887 0.004318129495069823
94196442 0.002021875998582032 0.004516530323530152
94226204 0.0020668281568296965 0.004740141897983291
94255966 0.002213677533675364 0.00497927409580103
94285728 0.002293375437091456 0.005255495083060764
94315490 0.002387542675973617 0.005572087845616452
94345252 0.0025025556111741712 0.005921485479518456
94375014 0.0025710888081532045 0.006326725841961429
94404776 0.0026702836471930334 0.006796121757199626
94434538 0.002738321795395969 0.007342128487365277
94464300 0.0027259262514856305 0.007050376945215305
94494062 0.0027320982985489014 0.0064095600087860595
94523824 0.0026878999244603495 0.0058517943547499365
94553586 0.0026230910130638422 0.005370001943416463
94583348 0.0025847505908031154 0.004937956634849857
94613110 0.0025191424509597693 0.004558406547270069
94642872 0.002460988642749102 0.004222027413296482
94672634 0.0024223818645582327 0.003911776308617818
94702396 0.002366882095513521 0.003636904099741929
94732158 0.0023269134361062244 0.0034417165118896006
94761920 0.002344450211769419 0.003348028790377584
94791682 0.0023409733972809587 0.0032673682154182983
94821444 0.0023813217639465653 0.0031669493109422082
94851206 0.00237605244835203 0.0030851316018842257
94880968 0.0024217805595497972 0.0029784800516699855
94910730 0.002430343145541339 0.002890042422455187
94940492 0.0024489354664463782 0.00279274155651899
94970254 0.0024360540759973334 0.0027067002078223937
95000016 0.002466499058131873 0.002601452410957956
95029778 0.0024727036559556077 0.0025616080710966337
95059540 0.002513641916075526 0.0024961418729690203
95089302 0.0025413237712367896 0.002432983295330299
95119064 0.0025711080807093068 0.0023728943519156316
95148826 0.0025751187767563146 0.0023200351308966197
95178588 0.002610336306730587 0.0022424209150224443
95208350 0.0026329488805434576 0.002170943464289939
95238112 0.0026608488390213584 0.002092601256483215
95267874 0.002679372428350853 0.0020145733780330406
95297636 0.002704691962719437 0.0019202909514764324
95327398 0.0027068522505461143 0.0018185620683633906
95357160 0.0027111453120767116 0.001708987787543777
95386922 0.002726983405169804 0.0016002960873083354
95416684 0.0027312798978151973 0.0014886353966406792
95446446 0.0027364981891562943 0.0013761457966783262
95476208 0.0027311792683090692 0.0012550022046351607
95505970 0.002726638267242343 0.0011367301106236733
95535732 0.0027124234713673573 0.0010075435426185702
95565494 0.0027083705743384725 0.0008726746463134895
95595256 0.0026879616515784227 0.000725466206666842
95625018 0.0026781996531270256 0.0005793731397703654
95654780 0.002648861143061696 0.00042430884738922506
95684542 0.0026227968868863683 0.00027183068049201303
95714304 0.002583703792955105 0.00011371036725133932
95744066 0.0025240818367992827 -3.8232126932183415e-05
95773828 0.0024803338279948675 -0.00020195833072772
95803590 0.0024189810950459036 -0.00035780337869349937
95833352 0.0023520894974180142 -0.0005108073994484373
95863114 0.0022502085708210086 -0.0006588114414938744
95892876 0.0021445135374375127 -0.0008045055746265269
95922638 0.0020311398328728336 -0.0009442405212578896
95952400 0.001916284794704035 -0.0010715698102854102
95982162 0.001799650680010597 -0.001216540003002342
96011924 0.0019562178493488713 -0.0011947951557379427
96041686 0.0015113112031535834 -0.0014867981885489099
96071448 0.0013772902475473522 -0.0016103355547199482
96101210 0.0012178333308631958 -0.001713407417961226
96130972 0.001489166860593752 -0.001752302487447117
96160734 0.0009298696338324166 -0.0019428668713283056
96190496 0.0008305105610861835 -0.002055125467168002
96220258 0.0006581298308814315 -0.002169766512378452
96250020 0.0004396199618954807 -0.002275678818324956
96279782 0.00029544353737796206 -0.00238025382695227
96309544 0.00014415135531481614 -0.002485832658583456
96339306 -7.134560175952051e-05 -0.002550152733782701
96369068 -0.0002607765390644516 -0.002631186702572174
96398830 -0.0004775812876412565 -0.00269527560282956
96428592 -0.0006695057857584603 -0.0027621887638077528
96458354 -0.0009108572704000656 -0.002809368801010003
96488116 -0.0016671849894456083 -0.0023537287219556717
96517878 -0.0014066523427407281 -0.002833414079217316
96547640 -0.001592909896607525 -0.002881925891160411
96577402 -0.0018150782835934499 -0.0028942039234283365
96607164 -0.0020835355843273847 -0.002809701758852477
96636926 -0.0027474099440970927 -0.0020465322524435216
96666688 -0.0025233502348180952 -0.002830911411244219
96696450 -0.002718832773116387 -0.0027601410134165537
96726212 -0.0028810746420314228 -0.0027186672971888136
96755974 -0.0025092604907854046 -0.00353602439637546
96785736 -0.0032064597550318014 -0.002571255840745072
96815498 -0.0029153357969552065 -0.0037361029471049195
96845260 -0.0035094181215821296 -0.0023932376707471456
96875022 -0.0036487871461409857 -0.002299599555049979
96904784 -0.0037751203533793838 -0.002226411732009434
96934546 -0.003907906695242827 -0.0020388530282865113
96964308 -0.0040471942917733005 -0.0020238985770508248
96994070 -0.0041829786367809955 -0.001951635111670885
97023832 -0.0042846238157171175 -0.000801415932841137
97053594 -0.004423926941283228 -0.0018031753147562295
97083356 -0.0045529762780325235 -0.0017264282797997874
97113118 -0.004588017663440487 -0.0028296724965406425
97142880 -0.004770062225642225 -0.0015395374950370982
97172642 -0.004708983598656708 -0.00037080157312216727
97202404 -0.004978682011219843 -0.0013986781285559766
97232166 -0.005073255380161312 -0.0012732865003533547
97261928 -0.005190242194546692 -0.0011627339789234982
97291690 -0.0052782547774365635 -0.000988984038580427
97321452 -0.005376609448204328 -0.0008676114881901174
97351214 -0.005455816030819998 -0.0007496032572022092
97380976 -0.005537723962891716 -0.0006036890466212564
97410738 -0.005592527282121613 -0.0004312859020902516
97440500 -0.005663760304170498 -0.0002906967567181026
97470262 -0.00522842464414099 0.0008311990785595639
97500024 -0.005783463675579805 -1.4070351001427894e-05
97529786 -0.005858193734588136 6.866025755967545e-05
97559548 -0.005324440232318825 0.0011913574160226832
97589310 -0.005963811020350771 0.0003687669182903945
97619072 -0.005949712114183331 0.0006152611408883607
97648834 -0.006068020383891443 0.0006027804096008148
97678596 -0.006083969277405584 0.0007621168456602553
97708358 -0.005455606177910577 0.0017580752213797418
97738120 -0.006158927321572881 0.0010301947689602413
97767882 -0.006194564293558727 0.0011389663215927652
97797644 -0.006872727256433197 0.00031615362673530537
97827406 -0.006133507584005487 0.0014472960162417452
97857168 -0.006038260346825626 0.0016359121810059856
97886930 -0.005948490158154461 0.0017969243378243524
97916692 -0.006607551661059433 0.0011527531987405827
97946454 -0.005801699929432342 0.0020843886767112608
97976216 -0.006457028696056337 0.0015035855124509567
98005978 -0.004917067251487946 0.0029363109429979706
98035740 -0.005554963376169645 0.0024784448157208817
98065502 -0.005552859759485011 0.0025468149733781672
98095264 -0.005629448562999544 0.002570700071777819
98125026 -0.005674628352677285 0.0026369185690100624
98154788 -0.004992799724198374 0.003219113853513435
98184550 -0.005829252890550591 0.0026999038850548103
98214312 -0.005915585617582226 0.0027243037989796207
98244074 -0.00519997738198961 0.0033076648932474427
98273836 -0.006116529160033409 0.002737398471224018
98303598 -0.0061671891752046034 0.0027869754849527304
98333360 -0.006252185756905802 0.0028058553390864264
98363122 -0.0062620273976032904 0.0028045372354122697
98392884 -0.006181332020568094 0.0028767521488434773
98422646 -0.006187499349755978 0.0028651186648823673
98452408 -0.0061601968016641116 0.002890747608127891
98482170 -0.006077097509567823 0.002949381717003674
98511932 -0.006085094418384333 0.002941067370984237
98541694 -0.00519167360468064 0.0035032296064476643
98571456 -0.005964270573092323 0.0030193217563465502
98601218 -0.006739511134435898 0.002463808231037957
98630980 -0.005890236271022689 0.0031056018442956472
98660742 -0.005829292139299849 0.0031982317252678976
98690504 -0.004973666321579034 0.0037251253092693156
98720266 -0.006547511402849894 0.00285999549467659
98750028 -0.005673759018078129 0.0034574221176228116
98779790 -0.005622793862260783 0.003540925655711947
98809552 -0.005618186813382886 0.003588100440475825
98839314 -0.005512867494782256 0.00369142431053975
98869076 -0.005517321116631446 0.003750365737612303
98898838 -0.006228518542190643 0.003428883505774641
98928600 -0.005417998580918805 0.0038722238973984717
98958362 -0.006231905443525262 0.0035211411122214754
98988124 -0.005484375387095709 0.003928116869435728
99017886 -0.005444338683332846 0.004007609393606287
99047648 -0.00550034997624841 0.0040044837210610204
99077410 -0.005446086028073677 0.004061749880496064
99107172 -0.005563937003021604 0.004087975540250558
99136934 -0.005521767903603972 0.004101860062469784
99166696 -0.005529747991351592 0.0041336719648325726
99196458 -0.005522751085218521 0.0041525110794499425
99226220 -0.005440837106339965 0.0041550477270746195
99255982 -0.005520495420173827 0.004115934283426593
99285744 -0.005485278917493148 0.00414007392621023
99315506 -0.005452915897190206 0.004123110811486287
99345268 -0.005369557448938496 0.004097346313617987
99375030 -0.005374411636163296 0.004125066844200332
99404792 -0.00542537047754023 0.0040841730213772446
99434554 -0.005401718831672027 0.004082087488892021
99464316 -0.005244160939494203 0.004177257099382469
99494078 -0.00525408559618786 0.004230806089091922
99523840 -0.0051028772406014515 0.004330366121750013
99553602 -0.004878538744344385 0.004418472945461787
99583364 -0.0056150416727150515 0.004233946847498947
99613126 -0.003979957830705119 0.00479235447812102
99642888 -0.004818354118959783 0.004624891647955583
99672650 -0.004632101468392952 0.004708395166973833
99702412 -0.005204352236627721 0.004550284604451542
99732174 -0.004418228509188976 0.004655872674013734
99761936 -0.004343624990179295 0.004835723980628954
99791698 -0.00462464776994859 0.004737682269778801
99821460 -0.004603025093027154 0.004737351433075559
99851222 -0.004697712524744664 0.004693192689146991
99880984 -0.0053437580173550546 0.004470246677990134
99910746 -0.004731607093594149 0.004653536733537564
99940508 -0.005386306094487219 0.004410839694417201
99970270 -0.00479448667946836 0.004594859158405939
100000032 -0.004771080845986865 0.0045878045315983764
100029794 -0.004747952093636398 0.004598255654054597
100059556 -0.004722313311051925 0.0046206098642442815
100089318 -0.0046999886592639355 0.004633998807590077
100119080 -0.004674854067987097 0.004661868659810114
100148842 -0.004677666669132167 0.004677114606993939
100178604 -0.004668102816358664 0.004689853843573923
100208366 -0.00464050488320397 0.0047056464848123074
100238128 -0.004615626424442897 0.004727698070764458
100267890 -0.00459618147101182 0.004737221993015087
100297652 -0.00458374825362509 0.004757752734832845
100327414 -0.004580690818503581 0.004770648907601579
100357176 -0.0045756655740441425 0.004771700357285786
100386938 -0.004572848050186478 0.004784434974854316
100416700 -0.004566237623249774 0.004795382265805409
100446462 -0.00456899032149497 0.0048027591162178515
100476224 -0.0045595776409575505 0.004814593077019845
100505986 -0.004555460273613869 0.004820320159674471
100535748 -0.004559097673166426 0.004827351682927399
100565510 -0.004568075467486758 0.0048520833812462595
100595272 -0.004604141107244871 0.004889959038306585
100625034 -0.004655693110264064 0.004926487764619057
100654796 -0.004698725367792396 0.004968576868710366
100684558 -0.004749132876905239 0.005008948158361005
100714320 -0.004794152948753361 0.005042734140232422
100744082 -0.004848459365127678 0.005089252270354302
100773844 -0.004900210587301516 0.005132955372254563
100803606 -0.004956747274426812 0.005169472656867482
100833368 -0.005005242879789207 0.005211567286754243
100863130 -0.004951036142178658 0.005204643138547339
100892892 -0.004887059709388887 0.0052047396358759
100922654 -0.004831623423034245 0.005205289136961019
100952416 -0.004781269607962211 0.005203661996356
100982178 -0.004710130976379298 0.00520024733844564
101011940 -0.0046570647439755745 0.00519379490286182
101041702 -0.004603180921991499 0.005187589721143322
101071464 -0.004555308246097214 0.005181370330782224
101101226 -0.004498088642420548 0.005172567052868453
101130988 -0.0044779289303895796 0.005170027293940129
101160750 -0.00448359665002621 0.005169711196230564
101190512 -0.004481040099685482 0.005170656133476586
101220274 -0.004484249605103789 0.00516266271231813
101250036 -0.0044833512504917055 0.005164161455804593
101279798 -0.004479169948279755 0.005156813154992206
101309560 -0.0044836545827283405 0.005151421837305307
101339322 -0.004451659875736295 0.0051566316142832025
101369084 -0.0045164279050872854 0.005145157477794151
101398846 -0.004498917003914316 0.005167648131047217
101428608 -0.0044353538398353735 0.005231992497174512
101458370 -0.004385349064391353 0.0052984612615700356
101488132 -0.00432472961875007 0.005365295772990636
101517894 -0.004258144842798724 0.005422112359115234
101547656 -0.004195558496384769 0.005485499395494088
101577418 -0.004101439295032823 0.005551156405166472
101607180 -0.004033676143426316 0.005610481518306361
101636942 -0.003965988072203582 0.00567009473602588
101666704 -0.0038912575141304704 0.005725357516606047
101696466 -0.003987119628040643 0.0056764928673370876
101726228 -0.004075044341394525 0.005627888637049816
101755990 -0.0041631632019221146 0.00556944621648122
101785752 -0.00424358860722682 0.005507359848317601
101815514 -0.004324377231040327 0.005448484513181068
101845276 -0.004410588575122908 0.005379933374057826
101875038 -0.00449377059628874 0.005310397921649697
101904800 -0.004566431025273991 0.005238154413567499
101934562 -0.004638747935383166 0.005161747525644028
101964324 -0.004610391925561773 0.0051814481238050235
101994086 -0.00452576773563141 0.005228370927081429
102023848 -0.004436500197883947 0.00529202567880019
102053610 -0.004353649260397174 0.005341798254143605
102083372 -0.004268950778402127 0.005388378862467633
102113134 -0.004236631896795561 0.005430938197108066
102142896 -0.004091069481138004 0.0054758885335387565
102172658 -0.003999487397818775 0.005516325102678783
102202420 -0.0039093310395110735 0.005554733059325163
102232182 -0.0039991351753352064 0.005585112979028116
102261944 -0.0039644648844693545 0.0056150530428337505
102291706 -0.004053918948289563 0.005640175370947831
102321468 -0.004207449428494426 0.005659657526202856
102351230 -0.004237456241199459 0.005683226661811061
102380992 -0.004335550744135531 0.005701953687625008
102410754 -0.004431892122590002 0.005723996505593713
102440516 -0.004534818946703787 0.005736623030701415
102470278 -0.004637353134493421 0.005750184666555184
102500040 -0.004741889928281783 0.005765418637272596
102529802 -0.0046850793359389555 0.005780200998323205
102559564 -0.004627060412217348 0.00580384227456448
102589326 -0.004570774403971462 0.005832355403769316
102619088 -0.0045141688204334805 0.005844259070379892
102648850 -0.00445571746435795 0.00586665706057854
102678612 -0.004399550331735073 0.005883697707770951
102708374 -0.004344471567277658 0.005898229619552981
102738136 -0.004285547401201249 0.005917558903153345
102767898 -0.004233867271802265 0.0059372972042562805
102797660 -0.004205548014885711 0.005919312934567477
102827422 -0.0041879052294693546 0.005893553598384395
102857184 -0.004170305156047585 0.005868493282366461
102886946 -0.00415512340012832 0.005839255740678061
102916708 -0.0041378463331525695 0.005813476682409468
102946470 -0.00413615554304678 0.005785209540171314
102976232 -0.004116491899189481 0.005764139798631211
103005994 -0.004096936843328767 0.005732761343559568
103035756 -0.004084701172571298 0.0057037632542804055
103065518 -0.004075788876176937 0.005702003130917147
103095280 -0.004080014014083102 0.0057272292137259765
103125042 -0.0040840255573905675 0.0057530687540113664
103154804 -0.004086307411650594 0.005779950315211938
103184566 -0.004088348630975271 0.005814522684231262
103214328 -0.00409116582365193 0.005837913211926094
103244090 -0.00409621204057199 0.005872246312625214
103273852 -0.004089278425363289 0.005897856941780048
103303614 -0.004092200929509588 0.005926217574257453
103333376 -0.004100083500536706 0.005956977332754575
103363138 -0.004007928068819145 0.005958586898431044
103392900 -0.00391462109039823 0.005956702246470727
103422662 -0.003825998077512383 0.0059532539940547295
103452424 -0.0037391934402604197 0.005950677839161875
103482186 -0.003659796451241317 0.005939610569705876
103511948 -0.003570031244978507 0.0059364239339801065
103541710 -0.0034872931260792025 0.0059317945948649505
103571472 -0.003401445448610419 0.0059222157044675735
103601234 -0.003322800290548024 0.0059115412967414285
103630996 -0.0033247218341590674 0.005904128252070439
103660758 -0.0033666567407914967 0.005896361937492648
103690520 -0.0034133408372773607 0.0058924448356797166
103720282 -0.0034548433719917815 0.005884889956243179
103750044 -0.0035040911827711693 0.005874642881235789
103779806 -0.0035505663569168804 0.005869786396535526
103809568 -0.003596905618319087 0.005858796738042318
103839330 -0.0036431006571498903 0.0058513321378590045
103869092 -0.0036885238675506095 0.005834084374756415
103898854 -0.0037342861193609455 0.005834167298205498
103928616 -0.003768785665540567 0.005857285694222055
103958378 -0.003809759812039638 0.005882084448187119
103988140 -0.003852585571724726 0.005906490888743451
104017902 -0.0038936835229579805 0.005927573532238733
104047664 -0.003934224941330525 0.0059482353827237525
104077426 -0.0039732110630584065 0.00597675131044556
104107188 -0.004016298572066584 0.005991100829781414
104136950 -0.004059980084615507 0.006018357518679169
104166712 -0.004103904425610978 0.006038128444963187
104196474 -0.0040904229936222815 0.0060860816008978065
104226236 -0.004076581756679487 0.00612662506661855
104255998 -0.004063989171446079 0.006171660830795267
104285760 -0.004055305396883801 0.006222034511441054
104315522 -0.004038328466816951 0.006268910020632571
104345284 -0.004025690608137964 0.00630828164077529
104375046 -0.004008235114731614 0.0063584340020970374
104404808 -0.003996436329379497 0.0064015343796485925
104434570 -0.0039786129015763495 0.00645103200965669
104464332 -0.003971228516878993 0.006429657749207571
104494094 -0.003958165364561186 0.006377255879771086
104523856 -0.003948186326718677 0.006317424763482191
104553618 -0.00394212460911747 0.006256005422703149
104583380 -0.003922136624019528 0.0062041896273570644
104613142 -0.003912602330238067 0.006145079573757326
104642904 -0.0039016009708436198 0.006095823906803173
104672666 -0.003888028951240224 0.0060397146354357984
104702428 -0.00387808178883555 0.005990079698627124
104732190 -0.0038628526144509757 0.0059772741855670785
104761952 -0.003845691275970423 0.006045118852474622
104791714 -0.003826026867803726 0.006120578050407606
104821476 -0.003802040254577387 0.006195320501211656
104851238 -0.00378650238046942 0.006267683328112392
104881000 -0.0037599911290849912 0.006336421384886823
104910762 -0.003729950420803072 0.0064181998494458785
104940524 -0.0037105213629846025 0.006493807412486396
104970286 -0.0036831103169782764 0.006566880554159074
105000048 -0.0036613695859159124 0.0066461635895989045
