# HZ S RI R 50
90000000 -0.000647964766297189 0.005417791152486177
90029762 -0.000616846271344553 0.005453359164591677
90059524 -0.0008495380345298241 0.005470064399371844
90089286 -0.0008143573597275867 0.005531670005625584
90119048 -0.0009001452756793183 0.0055352128911752155
90148810 -0.0007650379229926361 0.005574428224390414
90178572 -0.0007918201819693632 0.0056095619631654796
90208334 -0.0007647396747018306 0.0056455496098870624
90238096 -0.0010037415663656727 0.00566182367892234
90267858 -0.0008742860295534773 0.005706460337881114
90297620 -0.0008635248010989925 0.005685361588581616
90327382 -0.0007845290284487033 0.005643289778232453
90357144 -0.0008109287955416019 0.005594501802924574
90386906 -0.0007308934627300478 0.005550722845651395
90416668 -0.0009065246750594344 0.005497533484320144
90446430 -0.0007305128320389474 0.005462147243471021
90476192 -0.0006579367785962026 0.005423282707925202
90505954 -0.000629632114919279 0.005377134699465603
90535716 -0.0006548385925602983 0.005337057831881343
90565478 -0.0005788314088075577 0.005313972301792107
90595240 -0.0005886887286134923 0.005326425909185045
90625002 -0.0005503003833895559 0.005337098148858112
90654764 -0.00046508728943129944 0.005351854401630585
90684526 -0.0004266818496910624 0.0053643039783483415
90714288 -0.0004338058472685887 0.0053718608167253774
90744050 -0.0003962075860140789 0.005385160259837237
90773812 -0.0003094482365063091 0.005397512204822764
90803574 -0.0003169705354830478 0.005405853078952869
90833336 -0.00023265904667802882 0.005418291814769027
90863098 -0.0002061155668613836 0.005393658379101911
90892860 -0.0002246939645112308 0.005367195105960531
90922622 -0.0001584796893618429 0.0053438497727737524
90952384 -0.00013554637684142596 0.005317715583755339
90982146 -0.00015248740591287664 0.0052912115172587025
91011908 -8.691867352435834e-05 0.005268798918455873
91041670 -0.00010462949928676199 0.005244606598718448
91071432 -8.051832160790932e-05 0.005218372384151051
91101194 -0.00018131863540575378 0.005196369059887276
91130956 -2.6659096740948928e-05 0.005205046277596542
91160718 -9.343979359957332e-05 0.005236064890120238
91190480 -0.00011712843402699232 0.005266491001429553
91220242 -0.000265061703271157 0.005297830733116666
91250004 -0.00017173198567554653 0.005325955552687499
91279766 -0.00032139012745231727 0.00535469290867504
91309528 -0.00018675237475619034 0.005387125474092925
91339290 -0.0002549159282107586 0.005415524773677598
91369052 -0.000245235057312079 0.005444924540497194
91398814 -0.00042639248421291845 0.00544865905488349
91428576 -0.000301115460165044 0.00543090020097835
91458338 -0.00025632705545860894 0.005404382437504002
91488100 -0.00028743536008303403 0.005379025249208378
91517862 -0.0002828828256647147 0.005354499088359896
91547624 -0.0002375923355167759 0.005331976090451815
91577386 -0.00022958642088386974 0.005305964032853616
91607148 -0.0002605166408585638 0.005278708029862375
91636910 -0.00025424350334582186 0.005255474843075635
91666672 -0.0002136230337913284 0.005233322629254501
91696434 -0.00017383688209963638 0.0052423170096014896
91726196 -6.265450067810655e-05 0.0052497992265848675
91755958 1.0495579018072289e-05 0.0052590258705173445
91785720 5.4465393149031045e-05 0.005262672988114982
91815482 0.0001666730070994493 0.005266526344159254
91845244 0.0002426755668019615 0.005270441815324566
91875006 0.0002884580817580893 0.0052694508744392885
91904768 0.00026337942739563765 0.005270704996849435
91934530 0.0004444954591263202 0.005266302042540989
91964292 0.0004745378991078694 0.005276703093448433
91994054 0.000517149743914866 0.005292768870634486
92023816 0.0003841632377278913 0.0053196406428067874
92053578 0.0004934029420776005 0.005333120529897051
92083340 0.0005010984455650278 0.005351565008538711
92113102 0.0005430891319604292 0.0053711790371936624
92142864 0.0005133315823450888 0.005391789581354335
92172626 0.0005539613691888451 0.005409491892288708
92202388 0.0004298484139267496 0.0054286196412563015
92232150 0.000526408163771375 0.005426820960540959
92261912 0.0004165490086147908 0.0053718200787061495
92291674 0.0005290895143332737 0.005318107302256058
92321436 0.000480620725789788 0.0052698435273622855
92351198 0.0004982007695201413 0.00521485562662087
92380960 0.00045478665252103335 0.005167741471933819
92410722 0.00044245805708827845 0.005115614930547858
92440484 0.00046325222347558715 0.005065986970802022
92470246 0.00045097898691807926 0.005019763735337705
92500008 0.00041373415252888185 0.00496893751194986
92529770 0.000420063736586242 0.004986174506708752
92559532 0.00045027829564822273 0.005001417380257432
92589294 0.0004279685686921328 0.0050187419330483245
92619056 0.00046145038848821276 0.005033212331063787
92648818 0.0004644917169862182 0.005049005166347174
92678580 0.00044179328253472587 0.005065905614449916
92708342 0.0004740880478330337 0.005083874268086566
92738104 0.00048084090838472986 0.005097189703664471
92767866 0.00045842771215511127 0.005114712729567984
92797628 0.0005124225701734104 0.005121007231289204
92827390 0.0005256234755205188 0.005120438871599686
92857152 0.0005634840436644054 0.005120432888706802
92886914 0.0005289375993983143 0.005114762802725745
92916676 0.0006688132346434318 0.00512022460372517
92946438 0.0006883938546189683 0.005118401443005783
92976200 0.0007261266038958566 0.005115056068842871
93005962 0.0006960015241296116 0.005106603921076001
93035724 0.0008121277192635719 0.005104579767867589
93065486 0.0009081518899828386 0.005054765648499196
93095248 0.0009551095282332113 0.005078171415355632
93125010 0.0010157400825904972 0.0050497978961697105
93154772 0.001147054234303763 0.005015510278532878
93184534 0.0010915613253971777 0.005007174160430359
93214296 0.0012207183770377085 0.004965629681302956
93244058 0.0013079313293827583 0.004920261751252496
93273820 0.00145752653782243 0.0048742376288466414
93303582 0.0015346647526284535 0.004832547728249767
93333344 0.0016414648352230503 0.004785612062472207
93363106 0.0016054928572341678 0.00479505871044611
93392868 0.0014776832046558073 0.004825230636939079
93422630 0.0015154833125782556 0.004800937909204088
93452392 0.0014999371392821538 0.004805127294478591
93482154 0.0014680455112509368 0.004805440626267174
93511916 0.0014326300405774492 0.004804051691675326
93541678 0.0013964556063873449 0.004804218596082421
93571440 0.0013454753423655394 0.00479795591211626
93601202 0.0013316422758838258 0.004792477574843032
93630964 0.0013660621413951882 0.004767754152083521
93660726 0.0014109175013717144 0.004743037573250074
93690488 0.0014972137572928624 0.0047109960356420824
93720250 0.0015483659902702728 0.004676140558995787
93750012 0.0016132000465582635 0.004640710184556659
93779774 0.0016976583542336495 0.004600975988048557
93809536 0.0016946352081627103 0.004573181842586109
93839298 0.0018115526495342308 0.004528910200978655
93869060 0.0018769097507288586 0.004482183055263508
93898822 0.0019480431976916675 0.004437128715801194
93928584 0.0019575881144026225 0.004399906908481859
93958346 0.002004887790802838 0.004356176908653313
93988108 0.001967455283107549 0.004320036527809067
94017870 0.002044624631328244 0.004264638138283308
94047632 0.0020323561356967285 0.004224142997008777
94077394 0.0021178664763136417 0.004166052262512177
94107156 0.002130550875932952 0.00411766469438563
94136918 0.002178003143342352 0.004071459338065961
94166680 0.0021922215706567405 0.004020982685503289
94196442 0.0022875235227651273 0.004199135924397404
94226204 0.0023490872057588858 0.0044015125354100355
94255966 0.0025251753734026544 0.004615609955798198
94285728 0.0026233153907775125 0.004861182306946098
94315490 0.0027504576528555405 0.005143939956461071
94345252 0.002892299969545632 0.005460935292496235
94375014 0.003012750103161991 0.005829241901901938
94404776 0.003153426956725699 0.006253596556716054
94434538 0.0032680179172843654 0.0067541222930696705
94464300 0.0032521282703650805 0.006460271752182667
94494062 0.0031949638445909526 0.005829818677363832
94523824 0.0031172160856079265 0.005294522236663795
94553586 0.0030172803489574985 0.004820500707115732
94583348 0.002944358131137096 0.0044073865451547175
94613110 0.0028573249130343648 0.0040424149565915
94642872 0.00277081783426543 0.003716378685055313
94672634 0.002708271079607946 0.003413845051712214
94702396 0.0026300161676478767 0.003141943870891529
94732158 0.002579792297018696 0.002951643070638688
94761920 0.002592848750986756 0.002845159005005246
94791682 0.002579130887385599 0.0027497281285621543
94821444 0.0026131644229939327 0.0026507606176994643
94851206 0.002601226915060097 0.0025557182058362
94880968 0.0026416185820505793 0.0024345613962538024
94910730 0.002637362444333656 0.0023311262406129447
94940492 0.0026468634481967095 0.002225292154058219
94970254 0.002623711407345693 0.0021346812313546492
95000016 0.002633859698311974 0.002009651169178006
95029778 0.002647439148415872 0.0019518463368172311
95059540 0.0026816594025898116 0.0018655405310660845
95089302 0.0027045594033548487 0.001784324728602749
95119064 0.002716728305287623 0.001701757179798849
95148826 0.002717045236446436 0.0016296832665392896
95178588 0.0027380420568912604 0.001530395406480105
95208350 0.002753317605304651 0.001434109398678769
95238112 0.002766101942996984 0.0013338970787261323
95267874 0.002764882978618693 0.0012413572263827747
95297636 0.0027601710880989345 0.001125218207272372
95327398 0.0027558889610035386 0.0010038671163638826
95357160 0.002744408138883653 0.0008820207571962707
95386922 0.002725039298372562 0.0007381372401430772
95416684 0.0027104305274802906 0.0006082651800614124
95446446 0.002669931105555528 0.0004749093712983667
95476208 0.002643560604653734 0.00034970487946416187
95505970 0.0026056894996709943 0.00022806407496562563
95535732 0.002571987714466413 7.323503049711965e-05
95565494 0.0025191707067003656 -8.189154816018545e-05
95595256 0.0024683098803468203 -0.00022835367380007266
95625018 0.002406520118644283 -0.0003921911554468588
95654780 0.0023383211417629065 -0.0005258814402034066
95684542 0.002243596844295236 -0.0007305423339953804
95714304 0.0021639458847701955 -0.0008274934931985028
95744066 0.002072369302681259 -0.001040563519689661
95773828 0.0019847151520689093 -0.0011540628888268567
95803590 0.0018438216881319427 -0.0013418045435940557
95833352 0.001747665964671166 -0.0014523742630474848
95863114 0.001600452502618354 -0.0016152233161321448
95892876 0.0014430536347454636 -0.0017183801646782817
95922638 0.0012846019643291825 -0.0018305463742324345
95952400 0.0011354638896279596 -0.001942122961191809
95982162 0.0009619711424160237 -0.002031675185719276
96011924 0.0013122763993977174 -0.0021144994173669445
96041686 0.0006176911985453827 -0.002255218073659424
96071448 0.00046903030623715884 -0.002314992215139536
96101210 0.00026953712226531677 -0.002384475724994238
96130972 0.0006692511952993245 -0.0025946616960904763
96160734 -0.00013409846392440234 -0.002534380844312081
96190496 -0.00029444575719251545 -0.0026050739711370396
96220258 -0.0004684612090266026 -0.002671566465173553
96250020 -0.0006704323838783741 -0.0027319450652197783
96279782 -0.0008143835687230435 -0.00279352816237695
96309544 -0.0010621702582167998 -0.0028130901737102613
96339306 -0.0013286976662088995 -0.002772202725171005
96369068 -0.0014697846156250436 -0.0028536942618330105
96398830 -0.0016895370945167313 -0.002871834202500821
96428592 -0.0019079176369125625 -0.002859312629224704
96458354 -0.002117907092530703 -0.002857725161372184
96488116 -0.0027892369223251378 -0.0019235169386060333
96517878 -0.0025663252039349427 -0.0027820700353954056
96547640 -0.0027832365212051785 -0.0027445778710316416
96577402 -0.0030031205495695836 -0.002679668490223297
96607164 -0.003207496724048647 -0.0026220588831208373
96636926 -0.0036535244298147433 -0.0015428680367614205
96666688 -0.003634207158587616 -0.002451629022637498
96696450 -0.0037636875690668123 -0.002354117160852474
96726212 -0.0038880616452485806 -0.002273518878332058
96755974 -0.003684093789321127 -0.003273378220484391
96785736 -0.004134543064532258 -0.0020757027998714386
96815498 -0.003991797950989347 -0.003098760794586016
96845260 -0.004342016763570776 -0.0018227724846165865
96875022 -0.00442939697538431 -0.0017297593118846375
96904784 -0.00452270300349288 -0.0016319749233389377
96934546 -0.00459251128176539 -0.001442855783021983
96964308 -0.004701731118000748 -0.0014192291327360105
96994070 -0.004790217876766922 -0.001314813109817026
97023832 -0.004673458130867451 -0.00018837634845398873
97053594 -0.0049869216860105245 -0.0011578428507858622
97083356 -0.005067437338070571 -0.0010992748419793004
97113118 -0.005275612083455303 -0.0022193038302667036
97142880 -0.005224968280198395 -0.0009251468216144626
97172642 -0.00495654380929764 0.00020396747673266015
97202404 -0.005380191285495952 -0.0007647617772515768
97232166 -0.005425927943605428 -0.0006493522338395437
97261928 -0.005508416319063906 -0.0005595726763007429
97291690 -0.005563178431632283 -0.0003898853813555279
97321452 -0.005634611007954876 -0.00027593287965555337
97351214 -0.005697173128709173 -0.00015945225387814217
97380976 -0.005737181218455974 -3.46799004756137e-05
97410738 -0.0057764079805431535 0.00012275587316803497
97440500 -0.005815449532072082 0.0002640537123553901
97470262 -0.005264480848848347 0.0012968857386558177
97500024 -0.0058789677721662265 0.0005072033965821265
97529786 -0.005951848183266514 0.0005954377587738405
97559548 -0.005326627914651737 0.0016188906414741893
97589310 -0.006001850738267455 0.0008556167006075775
97619072 -0.0059703435121969866 0.0010722840177888194
97648834 -0.006083096677151365 0.00106733092553415
97678596 -0.006100178219425726 0.001200870848230681
97708358 -0.005395927572925339 0.002121723317048294
97738120 -0.0061375782660313995 0.0014426481272657233
97767882 -0.006178785038876147 0.0015481928172979655
97797644 -0.006881208605568383 0.0007964219372754686
97827406 -0.006077002499562092 0.0018140545328594268
97857168 -0.005958885037196902 0.0019925184927098395
97886930 -0.0058853348771050985 0.002119159184292143
97916692 -0.0065622692477319425 0.001506110711817545
97946454 -0.0057128065482128735 0.0023856504792335526
97976216 -0.006376731972859882 0.0018287688422832305
98005978 -0.004818257508076605 0.003152554058699529
98035740 -0.005460358498491086 0.0027142692058477014
98065502 -0.005466460933660512 0.0027695774735325258
98095264 -0.005528544241326256 0.0027971719386113325
98125026 -0.0055860015328686565 0.0028511678580465417
98154788 -0.004895677988335459 0.0033944213080698924
98184550 -0.0057384214230728195 0.002905860048794774
98214312 -0.0058166559113688385 0.0029265449821357465
98244074 -0.005104403031163263 0.003469792518564554
98273836 -0.006028673254789708 0.0029328458409113123
98303598 -0.006072340357899572 0.0029782348560999507
98333360 -0.0061533699254011165 0.002986908863953781
98363122 -0.006158654275237643 0.0029872631330611285
98392884 -0.006087109709412798 0.0030441325405037864
98422646 -0.006096910166846508 0.0030347488532600627
98452408 -0.006060705640451932 0.003054878246215703
98482170 -0.005971885284784085 0.0030949157652773703
98511932 -0.005997101009747583 0.003075045694147449
98541694 -0.005115123013923618 0.0036141453419757876
98571456 -0.005884162434939816 0.0031428282846228646
98601218 -0.006662485789999356 0.0026131836961988
98630980 -0.005805018096286351 0.003219921185747519
98660742 -0.005762198615347559 0.0033005375802430967
98690504 -0.004912387706717117 0.0038192685757199936
98720266 -0.0064625910380039725 0.0029834573210128085
98750028 -0.005601595577330395 0.0035539769078652118
98779790 -0.0055495952794001584 0.003627361855861281
98809552 -0.005547549835362497 0.0036793795233857293
98839314 -0.005445085291987569 0.003773105454389629
98869076 -0.00543951468346033 0.0038215125078262385
98898838 -0.006165070857575305 0.0035181636963742984
98928600 -0.005359931533913018 0.003936133165379247
98958362 -0.00616945751401559 0.0035910186341604317
98988124 -0.005425008144764588 0.003980628781699864
99017886 -0.005387996689568434 0.004047156817791221
99047648 -0.005432167448512422 0.00405385409602317
99077410 -0.005384119146814501 0.0041132550185852676
99107172 -0.005384838010888686 0.004145580424648975
99136934 -0.005457395528755638 0.004147063853460124
99166696 -0.00546533499743842 0.004177699667505628
99196458 -0.005395580143237104 0.00419286106672542
99226220 -0.005388478047591619 0.004189603439663599
99255982 -0.005434330516871563 0.004158967567768345
99285744 -0.00546572760168469 0.004169779082086331
99315506 -0.005416971945972357 0.004134391170166623
99345268 -0.005398279214967709 0.004140194651955859
99375030 -0.005331369779234221 0.004144487858167757
99404792 -0.0053823237818668 0.004119192108164612
99434554 -0.005366817996717004 0.004103626869308643
99464316 -0.005239987031068757 0.004193210547140279
99494078 -0.005211084422340697 0.004246090777125017
99523840 -0.005064460621089211 0.004361126261095549
99553602 -0.004973407197868961 0.004437712385289078
99583364 -0.0055784743221358015 0.004245388739339846
99613126 -0.004061354881460397 0.0048066804690036265
99642888 -0.004691306306606435 0.004644877316505539
99672650 -0.0045985800029626584 0.004718114696196476
99702412 -0.0052283090172196576 0.004562972867587338
99732174 -0.004848102344238317 0.004915777972676496
99761936 -0.004320273900112606 0.004842212834340859
99791698 -0.004598796294981011 0.004744447899696333
99821460 -0.0045749894339759374 0.004741614012568613
99851222 -0.004670802484349038 0.004696492106291903
99880984 -0.005324393836745468 0.004471501492777886
99910746 -0.004676972258115532 0.004659650089833674
99940508 -0.005393542898422787 0.004409360077105281
99970270 -0.00474221324597734 0.004599158228522032
100000032 -0.004789501929087474 0.004578227420371379
100029794 -0.004756800680033757 0.004599476616857034
100059556 -0.004734267812284713 0.00460819345712457
100089318 -0.0047122090223410355 0.004625481228077704
100119080 -0.0046928684013967 0.00465167710640675
100148842 -0.0046694138173115065 0.004661626283881067
100178604 -0.004653883153347679 0.004681501503771054
100208366 -0.0046268907047922634 0.004701103893952512
100238128 -0.00460556055710449 0.004723296507393089
100267890 -0.004591535853145256 0.004733687035188501
100297652 -0.004577453371191646 0.0047469728062153604
100327414 -0.004577115815016483 0.004751764724460561
100357176 -0.00456893357103661 0.0047683245873713235
100386938 -0.004569455097846099 0.004775393249051103
100416700 -0.004558306496884752 0.004782577986691891
100446462 -0.004563541807914163 0.004790154557662441
100476224 -0.0045635339188391435 0.004803003910610198
100505986 -0.004561328513592611 0.004819298828557056
100535748 -0.004553322710207783 0.004821977726683282
100565510 -0.004565691278500739 0.0048359380280675835
100595272 -0.004614657849849974 0.004879700123414961
100625034 -0.004656201991488878 0.004920849832844434
100654796 -0.004703302185342677 0.004958257650964319
100684558 -0.004749903716027802 0.004995990092483836
100714320 -0.004807044972023252 0.005039585856421748
100744082 -0.00485699006953832 0.005077719697561908
100773844 -0.0049096736933492546 0.005114755693628605
100803606 -0.004966401251146036 0.005159298641389934
100833368 -0.005015789813507643 0.0051999489385315695
100863130 -0.0049630436097195365 0.0051933524527126695
100892892 -0.004895793079812902 0.005189169649547842
100922654 -0.004844283460196917 0.005189748688883221
100952416 -0.004787126219735553 0.005191102386900358
100982178 -0.0047292561993014836 0.005183300611446435
101011940 -0.004679273371199364 0.005184987952007737
101041702 -0.004621621816103851 0.005179401087666186
101071464 -0.0045734572905402025 0.005176768462505481
101101226 -0.0045068989301724665 0.005165280321551736
101130988 -0.004490807608387458 0.005167531269452168
101160750 -0.004497797525639903 0.005167549062331002
101190512 -0.0044931371512412855 0.0051603995839037044
101220274 -0.004497488585414101 0.00515704519824763
101250036 -0.0044925597794631044 0.005161825412674662
101279798 -0.0044951344500640655 0.005155013849383665
101309560 -0.0044998797365110935 0.005145692089693513
101339322 -0.004497781701574473 0.005144320374061895
101369084 -0.004495419587812945 0.005140263253280519
101398846 -0.004476807507547767 0.005159978734935138
101428608 -0.004418148217292754 0.005224879067088639
101458370 -0.004359559243144868 0.00528808793092041
101488132 -0.004300907013751381 0.0053587352743592435
101517894 -0.004235930234208249 0.005420317118915314
101547656 -0.004170668934900831 0.0054910895595249466
101577418 -0.004107169782123667 0.005543602180665141
101607180 -0.004038248103484472 0.005610534089811753
101636942 -0.003967748517848093 0.005666367825122021
101666704 -0.0039016587831307266 0.005721324618266987
101696466 -0.003993502561523709 0.00567250654173803
101726228 -0.0040795901091502515 0.0056270593325039725
101755990 -0.004162872345087776 0.00556214099262024
101785752 -0.004247167778538097 0.00550584939031973
101815514 -0.0043310105733999175 0.005439602654546646
101845276 -0.004411735171667313 0.005375367143770327
101875038 -0.004492652735880071 0.005302791910132582
101904800 -0.004563246144468465 0.005233516664074261
101934562 -0.00463596251000371 0.005158401821388214
101964324 -0.004608947708258751 0.005169725342329148
101994086 -0.004529638709342205 0.005216659196275039
102023848 -0.004443437518241554 0.00527905631666927
102053610 -0.004353702468950123 0.005322192536879763
102083372 -0.004268834965962451 0.005369899770576251
102113134 -0.004175103317502838 0.0054135880244258056
102142896 -0.004099407948097406 0.005454647554590788
102172658 -0.004003428718215052 0.005495431845733324
102202420 -0.003914661882673698 0.005534435540723236
102232182 -0.003882771436550151 0.005567613824072059
102261944 -0.003966870112358652 0.005586625392315046
102291706 -0.004103302506874362 0.005613682965894171
102321468 -0.00414500100255089 0.005642951107528068
102351230 -0.004278934019077788 0.005660381162053426
102380992 -0.0043734747656387135 0.0056776304789830445
102410754 -0.004432735064471963 0.005694130226824475
102440516 -0.004575904478650717 0.0057080342511717595
102470278 -0.0046395272290834936 0.005718481757420567
102500040 -0.0049216555530050615 0.005725957188086936
102529802 -0.0046850051683533156 0.005753637719150447
102559564 -0.004623156604417023 0.005771937551358174
102589326 -0.004568784154345168 0.005794240543280993
102619088 -0.004462745235969484 0.005814022706226708
102648850 -0.004450820328033375 0.005831316376132243
102678612 -0.004396179645728748 0.00584514961504185
102708374 -0.00433506833638533 0.0058698873830735875
102738136 -0.0042844368315519575 0.005884352168939888
102767898 -0.004228573246014171 0.005898497366321902
102797660 -0.004193956169250218 0.005881111528741011
102827422 -0.004183854236725116 0.0058563550590539195
102857184 -0.004171687943295953 0.0058296022760198725
102886946 -0.004159412088111804 0.005798537133434708
102916708 -0.004139118011211457 0.005778009427076582
102946470 -0.004123484622439781 0.005750963515327475
102976232 -0.004109464492335196 0.005718076757799276
103005994 -0.004101672136391664 0.005690825105325354
103035756 -0.004075663973350941 0.005669977162948935
103065518 -0.004069491073093385 0.005659728904329646
103095280 -0.004072603017124222 0.005681212713097321
103125042 -0.004077552835411499 0.00571250071376794
103154804 -0.004078993379245244 0.00574041026915676
103184566 -0.004087506555826714 0.005766915440420636
103214328 -0.004082311265342837 0.0057960253963797535
103244090 -0.004086028343173724 0.005818824914556669
103273852 -0.004082376710697339 0.005847462460782613
103303614 -0.0040932079786904565 0.005877238374367816
103333376 -0.004093682998487604 0.005902348493167029
103363138 -0.004001719878741224 0.005907949658634261
103392900 -0.003912231381771453 0.005900024447674718
103422662 -0.0038238439102710716 0.005899307622567702
103452424 -0.0037362905905188783 0.005894908444517706
103482186 -0.003652223024211043 0.005889863103167418
103511948 -0.003565182606137966 0.005882833257294777
103541710 -0.0034839852151586624 0.005870409023676322
103571472 -0.003401353623580098 0.005863274764925883
103601234 -0.0033225840786296028 0.005850789533377899
103630996 -0.003326515524809723 0.005846763919049198
103660758 -0.0033685541881622967 0.005838882048063108
103690520 -0.0034182179544572666 0.0058342829610513675
103720282 -0.003460333102048659 0.005820561492255418
103750044 -0.0035112335482389893 0.005814640367022409
103779806 -0.003558454291301217 0.005801739148846191
103809568 -0.003596459246845493 0.005794644671550113
103839330 -0.0036504964646726745 0.005784001685104204
103869092 -0.0036986363724415324 0.005767530325031895
103898854 -0.0037454380088700217 0.005766029567885305
103928616 -0.0037768390077402908 0.005791678040140568
103958378 -0.0038214074073985487 0.005809328296224949
103988140 -0.0038585287657096783 0.005831508367382379
104017902 -0.003899711027306785 0.005857710315459192
104047664 -0.00393999133874405 0.005872323871423669
104077426 -0.003984306393044246 0.005897468039150558
104107188 -0.004030250948150276 0.005917930540270774
104136950 -0.004072480150753376 0.005939594289643591
104166712 -0.004120700635211512 0.005954568026889089
104196474 -0.004107196505494789 0.006000150845926484
104226236 -0.004090123378307502 0.0060471556345938204
104255998 -0.0040794629543228 0.006092324687175955
104285760 -0.004069725053163775 0.006134420802837337
104315522 -0.004061795712948337 0.006183756984479953
104345284 -0.0040480618738422906 0.006219770472359848
104375046 -0.004033470372984601 0.006267253345258879
104404808 -0.00402163485002814 0.00631041367769014
104434570 -0.004007427043830998 0.006368293157070912
104464332 -0.003990577843456865 0.006337178690032075
104494094 -0.003987821960235274 0.00628028205976302
104523856 -0.003982421043460667 0.006228879618946486
104553618 -0.00397129170116264 0.006165750940124665
104583380 -0.003954926712898516 0.0061127246279769456
104613142 -0.0039477558445704004 0.0060563999570041405
104642904 -0.00393690089582997 0.006008579782574526
104672666 -0.003925784656795769 0.0059520048213528316
104702428 -0.003910920819999546 0.005903415611981507
104732190 -0.003905675612579309 0.005890479358810817
104761952 -0.0038861993209153 0.005961856042342172
104791714 -0.0038673554577616258 0.006031660062342963
104821476 -0.0038505750674107937 0.006102103091583187
104851238 -0.003828626764237956 0.006179046395027775
104881000 -0.0038064905174528263 0.006251714762786184
104910762 -0.0037811983677925364 0.006322873808717811
104940524 -0.003759806097252675 0.0064006965056860165
104970286 -0.0037402206720599024 0.006484414212858981
105000048 -0.003707054874401096 0.0065580379329695316
